molecule { 
0 1
 N   -0.715400    0.000000    0.000000
 C    0.715400    0.000000    0.000000
 H    1.106900    0.091600    1.017400
 H    1.099600    0.834900   -0.593000
 H    1.099600   -0.927400   -0.434500
 H   -1.062500    0.856400    0.429400
 H   -1.062500   -0.766100    0.575300
}
set {
 geom_maxiter 400
}
memory 700MB
set_num_threads(1)
psi4_io.set_default_path("/scratch/bdw2292")
optimize('wb97x-d/6-31G*')
clean()
