%RWF=/scratch/bdw2292/Gau-ModifiedRes/,50GB
%Nosave
%Chk=ModifiedRes-opt-13-1-3-7-043.chk
%Mem=20GB
%Nproc=4
#P opt=(,maxcycle=400) HF/6-31G* MaxDisk=50GB

ModifiedRes Rotatable Bond Optimization on bme-nova.bme.utexas.edu

0 1
 N    1.090608   -0.929132    0.787564
 H    0.637525   -0.803279    1.689588
 C    0.690936    0.080337   -0.233010
 H    1.423206    0.892370   -0.151422
 C   -0.738654    0.580323    0.127224
 O   -1.727512    0.201704   -0.500817
 C    0.657463   -0.413632   -1.711508
 S    2.148846   -1.147389   -2.504483
 C    1.565642   -1.164121   -4.104533
 N    1.180933   -1.186003   -5.226957
 H   -0.132785   -1.165275   -1.793004
 H    0.408911    0.460373   -2.321489
 C    2.073557   -1.877568    0.839880
 O    2.912881   -2.110995   -0.024213
 N   -0.808763    1.449297    1.173617
 H    2.050965   -2.447540    1.784331
 H    0.022224    1.831902    1.608678
 H   -1.732382    1.784028    1.413154

7 3 1 13 F
5 3 1 13 F
3 1 13 14 F
7 3 5 15 F
1 3 5 6 F
1 3 5 15 F
7 3 5 6 F
1 3 7 8 F
5 3 7 8 F
3 7 8 9 F

