%RWF=/scratch/bdw2292/Gau-ModifiedRes/,50GB
%Nosave
%Chk=ModifiedRes-opt-3-1-13-14-027.chk
%Mem=20GB
%Nproc=4
#P opt=(,maxcycle=400) HF/6-31G* MaxDisk=50GB

ModifiedRes Rotatable Bond Optimization on bme-nova.bme.utexas.edu

0 1
 N    0.962174   -0.937576    0.745211
 H    0.584465   -0.911418    1.687697
 C    0.590931    0.139334   -0.197132
 H    0.695875   -0.281058   -1.206398
 C    1.557929    1.342343   -0.033506
 O    1.187299    2.347635    0.578039
 C   -0.863666    0.607258    0.022458
 S   -2.028168   -0.814261   -0.093070
 C   -3.496869    0.040643   -0.123565
 N   -4.535471    0.610902   -0.146656
 H   -0.964310    1.084016    1.000125
 H   -1.123283    1.335169   -0.749881
 C    1.946890   -1.848111    0.483049
 O    2.914144   -1.636072   -0.257123
 N    2.790683    1.221467   -0.589775
 H    1.787032   -2.817609    0.981080
 H    3.141859    0.311131   -0.869608
 H    3.417086    2.008110   -0.485744

3 1 13 14 F
7 3 1 13 F
5 3 1 13 F
7 3 5 15 F
1 3 5 6 F
1 3 5 15 F
7 3 5 6 F
1 3 7 8 F
5 3 7 8 F
3 7 8 9 F

