%RWF=/scratch/bdw2292/Gau-ModifiedRes/,50GB
%Nosave
%Chk=ModifiedRes-sp-13-1-3-7-024.chk
%Mem=20GB
%Nproc=4
#P MP2/6-311++G** SP SCF=(qc,maxcycle=800) Guess=Indo MaxDisk=50GB

ModifiedRes Rotatable Bond SP Calculation on bme-nova.bme.utexas.edu

0 1
 N    0.893588    1.003498    0.782824
 H    1.532461    0.847988    1.554628
 C    0.489329   -0.334496    0.249533
 H   -0.148999   -0.770839    1.030542
 C    1.699016   -1.308355    0.023653
 O    1.628098   -2.199411   -0.825556
 C   -0.303289   -0.371104   -1.098932
 S   -1.851992    0.617586   -1.213797
 C   -2.691489   -0.162957    0.044265
 N   -3.273794   -0.740584    0.902633
 H    0.336208    0.030049   -1.889789
 H   -0.567190   -1.404665   -1.336912
 C    0.448990    2.294934    0.678307
 O   -0.415794    2.754324   -0.060021
 N    2.774271   -1.226693    0.857108
 H    1.010243    2.955549    1.362427
 H    2.762474   -0.752244    1.749041
 H    3.515618   -1.885612    0.658965

