%RWF=/scratch/bdw2292/Gau-ModifiedRes/,50GB
%Nosave
%Chk=ModifiedRes-sp-13-1-3-7-346.chk
%Mem=20GB
%Nproc=4
#P MP2/6-311++G** SP SCF=(qc,maxcycle=800) Guess=Indo MaxDisk=50GB

ModifiedRes Rotatable Bond SP Calculation on bme-nova.bme.utexas.edu

0 1
 N   -1.245300    1.201288   -0.594173
 H   -1.766066    1.454484   -1.430624
 C   -0.757548   -0.199247   -0.633245
 H   -0.537363   -0.397631   -1.691321
 C   -1.814637   -1.248694   -0.172707
 O   -1.459014   -2.339017    0.278112
 C    0.526715   -0.504173    0.194395
 S    1.926754    0.590402   -0.316051
 C    3.216263   -0.275368    0.377647
 N    4.136516   -0.856163    0.850146
 H    0.336701   -0.351950    1.259160
 H    0.829071   -1.538365    0.010695
 C   -0.904051    2.218622    0.256065
 O   -0.216414    2.101907    1.269827
 N   -3.124480   -0.961972   -0.409546
 H   -1.339269    3.186948   -0.041845
 H   -3.438715   -0.030136   -0.643871
 H   -3.785382   -1.677064   -0.136841

