%RWF=/scratch/bdw2292/Gau-ModifiedRes/,50GB
%Nosave
%Chk=ModifiedRes-opt-13-1-3-7-194.chk
%Mem=20GB
%Nproc=4
#P opt=(,maxcycle=400) HF/6-31G* MaxDisk=50GB

ModifiedRes Rotatable Bond Optimization on bme-nova.bme.utexas.edu

0 1
 N    0.966445   -0.966169    0.694449
 H    0.589120   -0.912312    1.637168
 C    0.588861    0.132671   -0.234382
 H    0.017638   -0.339431   -1.042894
 C    1.850019    0.839491   -0.823693
 O    2.194761    1.937108   -0.376912
 C   -0.273239    1.204776    0.477071
 S   -1.760601    0.451506    1.257253
 C   -2.615951    1.863530    1.660261
 N   -3.235065    2.830354    1.953241
 H    0.317858    1.718079    1.239084
 H   -0.606721    1.940450   -0.258798
 C    1.908129   -1.948864    0.542461
 O    2.638037   -2.119094   -0.438442
 N    2.524882    0.220450   -1.824706
 H    1.948743   -2.624701    1.413088
 H    2.491827   -0.787311   -1.913269
 H    3.329658    0.715568   -2.184479

7 3 1 13 F
5 3 1 13 F
3 1 13 14 F
7 3 5 15 F
1 3 5 6 F
1 3 5 15 F
7 3 5 6 F
1 3 7 8 F
5 3 7 8 F
3 7 8 9 F

