%RWF=/scratch/bdw2292/Gau-ModifiedRes/,50GB
%Nosave
%Chk=ModifiedRes-opt-1-3-7-8-173.chk
%Mem=20GB
%Nproc=4
#P opt=(,maxcycle=400) HF/6-31G* MaxDisk=50GB

ModifiedRes Rotatable Bond Optimization on bme-nova.bme.utexas.edu

0 1
 N    0.938063   -0.895822    0.757492
 H    0.541777   -0.865753    1.692473
 C    0.603892    0.180086   -0.200330
 H    0.724324   -0.242183   -1.207663
 C    1.617204    1.341589   -0.022707
 O    1.297504    2.366147    0.580756
 C   -0.858712    0.642867   -0.026479
 S   -1.313357    2.127217   -1.035998
 C   -2.825176    2.445694   -0.323111
 N   -3.881447    2.683721    0.161895
 H   -1.543461   -0.164067   -0.299740
 H   -1.025184    0.906294    1.021502
 C    1.918098   -1.817113    0.515835
 O    2.603109   -1.828816   -0.513196
 N    2.848901    1.146469   -0.564550
 H    2.047209   -2.556753    1.321960
 H    3.103882    0.252987   -0.975433
 H    3.517271    1.898235   -0.465607

1 3 7 8 F
5 3 7 8 F
3 1 13 14 F
7 3 1 13 F
5 3 1 13 F
7 3 5 15 F
1 3 5 6 F
1 3 5 15 F
7 3 5 6 F
3 7 8 9 F

