%RWF=/scratch/bdw2292/Gau-ModifiedRes/,50GB
%Nosave
%Chk=ModifiedRes-opt-3-1-13-14-167.chk
%Mem=20GB
%Nproc=4
#P opt=(,maxcycle=400) HF/6-31G* MaxDisk=50GB

ModifiedRes Rotatable Bond Optimization on bme-nova.bme.utexas.edu

0 1
 N    0.967945   -0.939988    0.753236
 H    0.589776   -0.920098    1.695523
 C    0.596740    0.137471   -0.185168
 H    0.698131   -0.274513   -1.197806
 C    1.562427    1.339445   -0.019486
 O    1.198575    2.341635    0.596853
 C   -0.860018    0.601435    0.026326
 S   -2.028611   -0.816248   -0.102800
 C   -3.494172    0.044017   -0.139999
 N   -4.529539    0.619947   -0.167730
 H   -0.974891    1.080154    1.001500
 H   -1.120884    1.336031   -0.739299
 C    1.947588   -1.863840    0.526576
 O    2.390478   -2.607527    1.402359
 N    2.793637    1.219701   -0.585983
 H    2.338987   -1.885910   -0.504461
 H    3.094231    0.388847   -1.079827
 H    3.417900    2.005243   -0.461715

3 1 13 14 F
7 3 1 13 F
5 3 1 13 F
7 3 5 15 F
1 3 5 6 F
1 3 5 15 F
7 3 5 6 F
1 3 7 8 F
5 3 7 8 F
3 7 8 9 F

