%RWF=/scratch/bdw2292/Gau-ModifiedRes/,50GB
%Nosave
%Chk=ModifiedRes-opt-3-7-8-9-311.chk
%Mem=20GB
%Nproc=4
#P opt=(,maxcycle=400) HF/6-31G* MaxDisk=50GB

ModifiedRes Rotatable Bond Optimization on bme-nova.bme.utexas.edu

0 1
 N    0.964113   -0.932539    0.766927
 H    0.587174   -0.917474    1.709036
 C    0.591962    0.143639   -0.176790
 H    0.701389   -0.272940   -1.186135
 C    1.561366    1.332868   -0.010908
 O    1.201427    2.341984    0.600141
 C   -0.869361    0.609365    0.026264
 S   -2.040775   -0.807359   -0.105329
 C   -1.477186   -1.496122   -1.555336
 N   -1.084956   -1.975467   -2.564471
 H   -0.981063    1.089863    1.000736
 H   -1.111412    1.337377   -0.751051
 C    1.955820   -1.831967    0.495064
 O    2.617081   -1.820260   -0.549087
 N    2.790034    1.183781   -0.572124
 H    2.114786   -2.577918    1.289298
 H    3.060077    0.301060   -0.996701
 H    3.439126    1.952711   -0.478634

3 7 8 9 F
3 1 13 14 F
7 3 1 13 F
5 3 1 13 F
7 3 5 15 F
1 3 5 6 F
1 3 5 15 F
7 3 5 6 F
1 3 7 8 F
5 3 7 8 F

