%RWF=/scratch/bdw2292/Gau-ModifiedRes/,50GB
%Nosave
%Chk=ModifiedRes-sp-13-1-3-7-100.chk
%Mem=20GB
%Nproc=4
#P MP2/6-311++G** SP SCF=(qc,maxcycle=800) Guess=Indo MaxDisk=50GB

ModifiedRes Rotatable Bond SP Calculation on bme-nova.bme.utexas.edu

0 1
 N    1.214093   -0.799813    0.814798
 H    1.569343   -0.517879    1.723971
 C    0.765724    0.227749   -0.149006
 H    0.953205   -0.173015   -1.154336
 C    1.579927    1.530780    0.039508
 O    1.081595    2.508775    0.598496
 C   -0.739055    0.539372    0.014915
 S   -1.789345   -0.954471   -0.237532
 C   -3.311356   -0.195570   -0.204738
 N   -4.362550    0.353706   -0.210761
 H   -0.934372    0.941448    1.011664
 H   -1.030571    1.282820   -0.731062
 C    1.360513   -2.116307    0.480294
 O    1.125129   -2.554325   -0.647389
 N    2.850729    1.507163   -0.445240
 H    1.704147   -2.758128    1.306984
 H    3.220801    0.689672   -0.915588
 H    3.393250    2.353929   -0.340609

