%RWF=/scratch/bdw2292/Gau-ModifiedRes/,50GB
%Nosave
%Chk=ModifiedRes-sp-3-1-13-14-359.chk
%Mem=20GB
%Nproc=4
#P MP2/6-311++G** SP SCF=(qc,maxcycle=800) Guess=Indo MaxDisk=50GB

ModifiedRes Rotatable Bond SP Calculation on bme-nova.bme.utexas.edu

0 1
 N    0.982567   -0.914950    0.783139
 H    0.601160   -0.873806    1.723874
 C    0.605670    0.149262   -0.170653
 H    0.719270   -0.269583   -1.180127
 C    1.558550    1.359383   -0.019800
 O    1.178352    2.383765    0.551581
 C   -0.853462    0.603430    0.039724
 S   -2.006369   -0.815556   -0.179201
 C   -3.481335    0.026824   -0.113681
 N   -4.523865    0.588988   -0.071760
 H   -0.987764    1.026850    1.037564
 H   -1.103945    1.369386   -0.697975
 C    1.949307   -1.836734    0.498587
 O    2.579272   -1.848630   -0.564983
 N    2.801217    1.202711   -0.549166
 H    2.106489   -2.585083    1.291222
 H    3.083230    0.316992   -0.959961
 H    3.440877    1.981077   -0.466690

