%RWF=/scratch/bdw2292/Gau-ModifiedRes/,50GB
%Nosave
%Chk=ModifiedRes-opt-1-3-7-8-097.chk
%Mem=20GB
%Nproc=4
#P opt=(,maxcycle=400) HF/6-31G* MaxDisk=50GB

ModifiedRes Rotatable Bond Optimization on bme-nova.bme.utexas.edu

0 1
 N    1.009209   -0.881505    0.797825
 H    0.672712   -0.852487    1.756385
 C    0.603038    0.199302   -0.129316
 H    0.653224   -0.202031   -1.151915
 C    1.648669    1.345126   -0.016793
 O    1.423601    2.382114    0.602597
 C   -0.870294    0.618584    0.136764
 S   -1.259897    2.081113    1.206447
 C   -2.932765    1.787855    1.331736
 N   -4.099642    1.597173    1.428381
 H   -1.341495    0.822053   -0.828782
 H   -1.366961   -0.222780    0.630308
 C    1.973997   -1.800199    0.493333
 O    2.592841   -1.811211   -0.577041
 N    2.830261    1.126450   -0.654500
 H    2.156609   -2.538187    1.290560
 H    3.040841    0.228997   -1.081229
 H    3.522352    1.861132   -0.599561

1 3 7 8 F
5 3 7 8 F
3 1 13 14 F
7 3 1 13 F
5 3 1 13 F
7 3 5 15 F
1 3 5 6 F
1 3 5 15 F
7 3 5 6 F
3 7 8 9 F

