%RWF=/scratch/bdw2292/Gau-ModifiedRes/,50GB
%Nosave
%Chk=ModifiedRes-opt-13-1-3-7-156.chk
%Mem=20GB
%Nproc=4
#P opt=(,maxcycle=400) HF/6-31G* MaxDisk=50GB

ModifiedRes Rotatable Bond Optimization on bme-nova.bme.utexas.edu

0 1
 N    0.957233   -0.937262    0.760311
 H    0.580513   -0.916697    1.703659
 C    0.596863    0.139044   -0.186201
 H    0.705154   -0.284980   -1.193672
 C    1.562084    1.338579   -0.021002
 O    1.201439    2.350228    0.584984
 C   -0.856327    0.614267    0.031793
 S   -2.027737   -0.802077   -0.081538
 C   -3.490654    0.062850   -0.113563
 N   -4.525210    0.640588   -0.137672
 H   -0.951802    1.091603    1.009809
 H   -1.110165    1.341092   -0.743530
 C    1.945885   -1.841572    0.492739
 O    2.603243   -1.836115   -0.554364
 N    2.791935    1.189335   -0.580859
 H    2.099036   -2.590124    1.286124
 H    3.068831    0.304077   -0.995895
 H    3.438278    1.961264   -0.490321

7 3 1 13 F
5 3 1 13 F
3 1 13 14 F
7 3 5 15 F
1 3 5 6 F
1 3 5 15 F
7 3 5 6 F
1 3 7 8 F
5 3 7 8 F
3 7 8 9 F

