%RWF=/scratch/bdw2292/Gau-ModifiedRes/,50GB
%Nosave
%Chk=ModifiedRes-opt-3-1-13-14-195.chk
%Mem=20GB
%Nproc=4
#P opt=(,maxcycle=400) HF/6-31G* MaxDisk=50GB

ModifiedRes Rotatable Bond Optimization on bme-nova.bme.utexas.edu

0 1
 N    0.967202   -0.945660    0.753190
 H    0.582766   -0.922739    1.692542
 C    0.599647    0.135211   -0.185170
 H    0.704459   -0.276092   -1.197778
 C    1.564919    1.337945   -0.016112
 O    1.198417    2.338868    0.600657
 C   -0.857645    0.598869    0.026342
 S   -2.027795   -0.817809   -0.105149
 C   -3.491101    0.046653   -0.140985
 N   -4.524551    0.626305   -0.167742
 H   -0.972174    1.074970    1.002826
 H   -1.117153    1.333956   -0.739289
 C    1.945186   -1.873290    0.534354
 O    2.044496   -2.907565    1.195237
 N    2.798941    1.223677   -0.577661
 H    2.663208   -1.627418   -0.263566
 H    3.073678    0.432174   -1.145371
 H    3.420097    2.010745   -0.447126

3 1 13 14 F
7 3 1 13 F
5 3 1 13 F
7 3 5 15 F
1 3 5 6 F
1 3 5 15 F
7 3 5 6 F
1 3 7 8 F
5 3 7 8 F
3 7 8 9 F

