%RWF=/scratch/bdw2292/Gau-ModifiedRes/,50GB
%Nosave
%Chk=ModifiedRes-opt-13-1-3-7-100.chk
%Mem=20GB
%Nproc=4
#P opt=(,maxcycle=400) HF/6-31G* MaxDisk=50GB

ModifiedRes Rotatable Bond Optimization on bme-nova.bme.utexas.edu

0 1
 N    0.980203   -0.936724    0.771544
 H    0.596503   -0.895621    1.711491
 C    0.614259    0.130310   -0.186025
 H    1.469737    0.256367   -0.862922
 C    0.357970    1.449788    0.582474
 O   -0.790754    1.840713    0.794505
 C   -0.644198   -0.242571   -1.002189
 S   -0.457510   -1.846186   -1.891607
 C   -1.845061   -1.751785   -2.870982
 N   -2.806206   -1.709939   -3.564559
 H   -1.510707   -0.303809   -0.339669
 H   -0.821743    0.537074   -1.747041
 C    1.969367   -1.846196    0.525578
 O    2.632181   -1.855996   -0.513376
 N    1.469133    2.119359    0.991559
 H    2.120016   -2.579446    1.333597
 H    2.399003    1.773521    0.786004
 H    1.320407    2.989341    1.484820

7 3 1 13 F
5 3 1 13 F
3 1 13 14 F
7 3 5 15 F
1 3 5 6 F
1 3 5 15 F
7 3 5 6 F
1 3 7 8 F
5 3 7 8 F
3 7 8 9 F

