%RWF=/scratch/bdw2292/Gau-ModifiedRes/,50GB
%Nosave
%Chk=ModifiedRes-sp-3-1-13-14-307.chk
%Mem=20GB
%Nproc=4
#P MP2/6-311++G** SP SCF=(qc,maxcycle=800) Guess=Indo MaxDisk=50GB

ModifiedRes Rotatable Bond SP Calculation on bme-nova.bme.utexas.edu

0 1
 N    0.968540   -0.945772    0.758825
 H    0.572035   -0.943645    1.694494
 C    0.613285    0.150554   -0.163422
 H    0.745950   -0.233286   -1.184624
 C    1.562972    1.354321    0.047089
 O    1.172491    2.357771    0.646008
 C   -0.849800    0.598684    0.035610
 S   -2.003226   -0.808846   -0.253307
 C   -3.472392    0.044019   -0.183226
 N   -4.510104    0.615397   -0.138927
 H   -1.001699    0.987035    1.045169
 H   -1.086138    1.390083   -0.679603
 C    1.936953   -1.857967    0.463415
 O    1.962261   -2.483168   -0.597866
 N    2.818176    1.222023   -0.462308
 H    2.680995   -2.002877    1.262343
 H    3.094609    0.415421   -1.011251
 H    3.444133    2.004350   -0.327140

