%RWF=/scratch/bdw2292/Gau-ModifiedRes/,50GB
%Nosave
%Chk=ModifiedRes-opt-1-3-7-8-324.chk
%Mem=20GB
%Nproc=4
#P opt=(,maxcycle=400) HF/6-31G* MaxDisk=50GB

ModifiedRes Rotatable Bond Optimization on bme-nova.bme.utexas.edu

0 1
 N    0.982219   -0.943727    0.767344
 H    0.610220   -0.931811    1.713027
 C    0.594900    0.127579   -0.175778
 H    0.705212   -0.292049   -1.184987
 C    1.552698    1.335503   -0.010427
 O    1.190010    2.345052    0.598146
 C   -0.872980    0.578733    0.035401
 S   -1.996268   -0.814365    0.478285
 C   -3.490424   -0.019412    0.319631
 N   -4.545656    0.510157    0.216567
 H   -0.916160    1.330200    0.827418
 H   -1.234889    1.016802   -0.898138
 C    1.984010   -1.831748    0.493757
 O    2.637046   -1.814748   -0.556023
 N    2.782336    1.197213   -0.573847
 H    2.154279   -2.576930    1.286840
 H    3.066629    0.315726   -0.991791
 H    3.422617    1.974026   -0.482025

1 3 7 8 F
5 3 7 8 F
3 1 13 14 F
7 3 1 13 F
5 3 1 13 F
7 3 5 15 F
1 3 5 6 F
1 3 5 15 F
7 3 5 6 F
3 7 8 9 F

