%RWF=/scratch/bdw2292/Gau-ModifiedRes/,50GB
%Nosave
%Chk=ModifiedRes-sp-13-1-3-7-232.chk
%Mem=20GB
%Nproc=4
#P MP2/6-311++G** SP SCF=(qc,maxcycle=800) Guess=Indo MaxDisk=50GB

ModifiedRes Rotatable Bond SP Calculation on bme-nova.bme.utexas.edu

0 1
 N   -0.900813    1.318376   -0.507292
 H   -0.052741    1.859260   -0.656794
 C   -0.611423   -0.141425   -0.571329
 H   -0.572023   -0.374462   -1.643879
 C   -1.672203   -1.123513    0.052090
 O   -1.280984   -2.225397    0.450201
 C    0.735087   -0.531931    0.106398
 S    2.138044    0.425754   -0.601880
 C    3.450240   -0.502262   -0.049490
 N    4.355003   -1.143354    0.367994
 H    0.688187   -0.336671    1.180407
 H    0.929486   -1.592221   -0.073665
 C   -1.928030    2.130967   -0.104421
 O   -3.070577    1.813046    0.232404
 N   -2.999561   -0.859441    0.051364
 H   -1.626974    3.192626   -0.133726
 H   -3.408615    0.050131   -0.108491
 H   -3.589179   -1.585050    0.436435

