%RWF=/scratch/bdw2292/Gau-ModifiedRes/,50GB
%Nosave
%Chk=ModifiedRes-sp-3-1-13-14-195.chk
%Mem=20GB
%Nproc=4
#P MP2/6-311++G** SP SCF=(qc,maxcycle=800) Guess=Indo MaxDisk=50GB

ModifiedRes Rotatable Bond SP Calculation on bme-nova.bme.utexas.edu

0 1
 N    1.272658    0.893493   -0.308894
 H    1.725912    0.990941   -1.210315
 C    0.648554   -0.326895    0.242622
 H    0.505582   -0.187761    1.321028
 C    1.557361   -1.548626   -0.033726
 O    2.150004   -1.647235   -1.108083
 C   -0.719437   -0.603669   -0.410429
 S   -1.843943    0.845452   -0.193587
 C   -3.311064    0.015205    0.034109
 N   -4.341392   -0.548336    0.194238
 H   -0.594054   -0.787259   -1.481081
 H   -1.188548   -1.477410    0.048810
 C    1.656100    1.932404    0.494829
 O    1.976179    3.039199    0.057424
 N    1.592720   -2.501952    0.936590
 H    1.683869    1.707544    1.573977
 H    1.116214   -2.393812    1.823698
 H    2.176183   -3.306308    0.749523

