%RWF=/scratch/bdw2292/Gau-ModifiedRes/,50GB
%Nosave
%Chk=ModifiedRes-opt-13-1-3-7-081.chk
%Mem=20GB
%Nproc=4
#P opt=(,maxcycle=400) HF/6-31G* MaxDisk=50GB

ModifiedRes Rotatable Bond Optimization on bme-nova.bme.utexas.edu

0 1
 N    1.014167   -0.936421    0.784883
 H    0.618226   -0.883190    1.719308
 C    0.638488    0.113091   -0.191854
 H    1.575164    0.485933   -0.626212
 C   -0.097150    1.260601    0.547998
 O   -1.321924    1.372084    0.485163
 C   -0.281310   -0.424561   -1.320581
 S    0.372006   -1.852353   -2.285095
 C   -0.794181   -1.854182   -3.524644
 N   -1.594996   -1.875912   -4.399671
 H   -1.236057   -0.726942   -0.882604
 H   -0.445400    0.388255   -2.033211
 C    2.014642   -1.847034    0.594638
 O    2.712241   -1.891775   -0.418955
 N    0.697657    2.109222    1.254588
 H    2.143861   -2.550481    1.432670
 H    1.705171    2.004831    1.267446
 H    0.234796    2.870934    1.732034

7 3 1 13 F
5 3 1 13 F
3 1 13 14 F
7 3 5 15 F
1 3 5 6 F
1 3 5 15 F
7 3 5 6 F
1 3 7 8 F
5 3 7 8 F
3 7 8 9 F

