%RWF=/scratch/bdw2292/Gau-ModifiedRes/,50GB
%Nosave
%Chk=ModifiedRes-sp-3-1-13-14-251.chk
%Mem=20GB
%Nproc=4
#P MP2/6-311++G** SP SCF=(qc,maxcycle=800) Guess=Indo MaxDisk=50GB

ModifiedRes Rotatable Bond SP Calculation on bme-nova.bme.utexas.edu

0 1
 N    1.307044    0.875987   -0.316874
 H    1.785318    0.966502   -1.206322
 C    0.650650   -0.320976    0.241734
 H    0.488043   -0.159541    1.315028
 C    1.542646   -1.562483    0.005929
 O    2.155881   -1.689254   -1.054419
 C   -0.708744   -0.585860   -0.434742
 S   -1.820578    0.882192   -0.271849
 C   -3.298171    0.064504   -0.061008
 N   -4.309189   -0.526407    0.126301
 H   -0.562685   -0.790560   -1.498868
 H   -1.201289   -1.443243    0.030833
 C    1.678041    1.900627    0.504746
 O    1.141215    3.008577    0.481828
 N    1.540817   -2.499002    0.992954
 H    2.517548    1.659023    1.176693
 H    1.043523   -2.366740    1.865365
 H    2.110646   -3.318773    0.832714

