%RWF=/scratch/bdw2292/Gau-ModifiedRes/,50GB
%Nosave
%Chk=ModifiedRes-opt-7-3-5-15-200.chk
%Mem=20GB
%Nproc=4
#P opt=(,maxcycle=400) HF/6-31G* MaxDisk=50GB

ModifiedRes Rotatable Bond Optimization on bme-nova.bme.utexas.edu

0 1
 N    0.960920   -0.936827    0.761048
 H    0.582397   -0.919228    1.703731
 C    0.592513    0.139917   -0.181769
 H    0.704316   -0.281325   -1.190273
 C    1.555982    1.340141   -0.011861
 O    1.190844    2.350250    0.593960
 C   -0.863565    0.608161    0.025621
 S   -2.026705   -0.813982   -0.097500
 C   -3.493782    0.043436   -0.139703
 N   -4.531087    0.615877   -0.171035
 H   -0.968374    1.084225    1.003254
 H   -1.115202    1.334475   -0.750887
 C    1.953386   -1.836116    0.490702
 O    2.610199   -1.825434   -0.556699
 N    2.787111    1.195851   -0.570223
 H    2.110158   -2.585809    1.282291
 H    3.066973    0.313125   -0.988622
 H    3.431017    1.969462   -0.476732

7 3 5 15 F
1 3 5 6 F
1 3 5 15 F
7 3 5 6 F
3 1 13 14 F
7 3 1 13 F
5 3 1 13 F
1 3 7 8 F
5 3 7 8 F
3 7 8 9 F

