%RWF=/scratch/bdw2292/Gau-ModifiedRes/,50GB
%Nosave
%Chk=ModifiedRes-sp-7-3-5-15-200.chk
%Mem=20GB
%Nproc=4
#P MP2/6-311++G** SP SCF=(qc,maxcycle=800) Guess=Indo MaxDisk=50GB

ModifiedRes Rotatable Bond SP Calculation on bme-nova.bme.utexas.edu

0 1
 N    0.983979   -0.914541    0.791819
 H    0.605507   -0.896586    1.734436
 C    0.606798    0.148157   -0.162369
 H    0.726126   -0.274888   -1.169455
 C    1.560251    1.357098   -0.009227
 O    1.189046    2.371617    0.585196
 C   -0.851915    0.604851    0.040064
 S   -2.005433   -0.813094   -0.181275
 C   -3.479647    0.031232   -0.124187
 N   -4.521663    0.594770   -0.088154
 H   -0.990030    1.030610    1.036389
 H   -1.098028    1.369597   -0.700367
 C    1.945810   -1.840666    0.503757
 O    2.574317   -1.851945   -0.560726
 N    2.790532    1.212062   -0.569994
 H    2.113560   -2.581637    1.301223
 H    3.070106    0.327383   -0.984708
 H    3.430644    1.990210   -0.488987

