%RWF=/scratch/bdw2292/Gau-ModifiedRes/,50GB
%Nosave
%Chk=ModifiedRes-opt-1-3-7-8-287.chk
%Mem=20GB
%Nproc=4
#P opt=(,maxcycle=400) HF/6-31G* MaxDisk=50GB

ModifiedRes Rotatable Bond Optimization on bme-nova.bme.utexas.edu

0 1
 N    0.946070   -0.929880    0.761374
 H    0.563259   -0.911291    1.702084
 C    0.595126    0.149920   -0.184642
 H    0.709560   -0.270635   -1.193076
 C    1.564588    1.344505   -0.014752
 O    1.203499    2.355651    0.591590
 C   -0.860500    0.620297    0.028305
 S   -2.022708   -0.652078   -0.617078
 C   -3.466294    0.241954   -0.539156
 N   -4.487231    0.842424   -0.495426
 H   -1.053873    0.797156    1.088171
 H   -1.018707    1.555398   -0.514111
 C    1.932123   -1.837509    0.495251
 O    2.594961   -1.831470   -0.548346
 N    2.796241    1.192222   -0.569689
 H    2.077893   -2.589643    1.286676
 H    3.070975    0.307202   -0.986618
 H    3.444518    1.962176   -0.476257

1 3 7 8 F
5 3 7 8 F
3 1 13 14 F
7 3 1 13 F
5 3 1 13 F
7 3 5 15 F
1 3 5 6 F
1 3 5 15 F
7 3 5 6 F
3 7 8 9 F

