%RWF=/scratch/liuchw/Gau-MOLECULE0/,100GB
%Nosave
%Chk=MOLECULE0-opt.chk
%Mem=64GB
%Nproc=8
#P opt=(maxcycle=400) wB97XD/6-31G* Guess=INDO MaxDisk=100GB

MOLECULE0 Gaussian SP Calculation on node37.bme.utexas.edu

0 1
 C    5.147300  -10.285300   -6.044800
 C    4.495600   -9.067800   -6.253000
 C    4.172600   -8.231100   -5.178400
 C    4.507200   -8.741300   -3.913900
 N    5.155000   -9.911200   -3.668900
 C    5.463000  -10.656000   -4.745200
 C    3.582000   -6.880600   -5.319800
 C    3.249000   -6.282500   -6.514700
 C    2.832800   -4.971400   -6.441900
 N    2.753100   -4.266500   -5.297300
 C    3.092500   -4.908200   -4.174700
 N    3.465000   -6.197600   -4.164700
 N    3.066100   -4.174400   -2.985900
 C    3.730200   -4.395900   -1.762000
 C    3.424200   -3.635600   -0.617900
 C    4.166000   -3.822900    0.569100
 C    5.140500   -4.820000    0.663500
 C    5.344600   -5.660700   -0.417100
 C    4.656400   -5.433800   -1.608500
 N    6.181300   -6.786100   -0.389600
 C    7.406900   -6.848900    0.233900
 C    8.164400   -8.131100    0.053800
 C    7.875000   -9.065300   -0.944900
 C    8.631900  -10.230800   -1.059900
 C    9.687700  -10.497100   -0.175800
 C    9.983700   -9.556400    0.818300
 C    9.235200   -8.379900    0.920400
 C   10.506200  -11.754800   -0.341000
 N   10.059200  -12.934300    0.389600
 C    8.666600  -13.347900    0.201900
 C    7.728900  -13.081900    1.401200
 N    8.248800  -13.565300    2.693500
 C    8.332700  -15.026900    2.722500
 C    9.566100  -12.941100    2.912400
 C   10.576600  -13.096900    1.749300
 O    7.922300   -5.936700    0.870200
 C    2.316400   -2.618700   -0.615100
 H    5.410100  -10.929100   -6.873600
 H    4.266700   -8.788400   -7.276900
 H    4.260400   -8.191700   -3.009000
 H    5.983500  -11.586100   -4.537000
 H    3.323300   -6.778100   -7.471200
 H    2.561200   -4.423700   -7.340400
 H    2.863700   -3.206500   -3.196400
 H    3.964300   -3.209000    1.444100
 H    5.671200   -4.971800    1.598900
 H    4.929100   -6.048000   -2.455600
 H    5.920800   -7.524000   -1.025700
 H    7.081800   -8.924700   -1.677500
 H    8.392900  -10.932400   -1.854900
 H   10.814500   -9.717500    1.498400
 H    9.498900   -7.645800    1.682700
 H   10.529400  -12.010500   -1.409300
 H   11.554300  -11.536700   -0.112300
 H    8.225300  -12.918700   -0.702300
 H    8.675100  -14.429200    0.003300
 H    6.745500  -13.529400    1.207500
 H    7.544100  -12.001800    1.488000
 H    9.025200  -15.443600    1.984200
 H    7.346100  -15.469100    2.543200
 H    8.655700  -15.371400    3.711000
 H   10.012800  -13.330100    3.835900
 H    9.405300  -11.870500    3.094300
 H   10.988700  -14.112200    1.803400
 H   11.430700  -12.435000    1.938500
 H    1.446900   -2.992500   -1.166500
 H    2.656100   -1.679100   -1.060100
 H    1.971900   -2.420200    0.405900


