%RWF=/scratch/bdw2292/Gau-MOLECULE0/,100GB
%Nosave
%Chk=MOLECULE0-dma_temp.chk
%Mem=20GB
%Nproc=6
#P MP2/6-311G** Sp Density=MP2 MaxDisk=100GB

MOLECULE0 Gaussian SP Calculation on node37.bme.utexas.edu

0 1
 C   -0.473711    4.275032   -0.771869
 C    0.870836    4.192437   -0.430653
 C    1.547269    2.990409   -0.631590
 C    0.820841    1.926254   -1.182433
 N   -0.468151    1.989916   -1.511444
 C   -1.097083    3.149980   -1.300563
 C    2.969115    2.789320   -0.253823
 C    3.900079    3.819348   -0.154644
 C    5.186002    3.446902    0.235372
 N    5.545365    2.197629    0.496952
 C    4.571980    1.275155    0.354875
 N    3.311980    1.523706   -0.001897
 N    4.960763   -0.010771    0.613829
 C    4.245205   -1.216940    0.494861
 C    4.969133   -2.426516    0.479396
 C    4.248671   -3.609427    0.337905
 C    2.862898   -3.650837    0.195253
 C    2.171465   -2.443380    0.217385
 C    2.859641   -1.243382    0.394219
 N    0.784901   -2.305516    0.039680
 C   -0.155131   -3.232768   -0.330553
 C   -1.474597   -2.601352   -0.674884
 C   -1.549713   -1.358409   -1.310492
 C   -2.782024   -0.779120   -1.574293
 C   -3.965425   -1.410296   -1.191241
 C   -3.883752   -2.677713   -0.607660
 C   -2.653641   -3.274650   -0.357382
 C   -5.302457   -0.704546   -1.348466
 N   -5.692594    0.225934   -0.300011
 C   -5.025494    1.522554   -0.248160
 C   -3.815738    1.577636    0.702567
 N   -4.113357    1.069169    2.038710
 C   -4.902260    1.978548    2.850663
 C   -4.679615   -0.274210    1.939968
 C   -5.914549   -0.339995    1.026015
 O    0.036889   -4.436613   -0.364163
 C    6.471939   -2.442119    0.598787
 H   -1.033146    5.191700   -0.619223
 H    1.375938    5.045588    0.013061
 H    1.324971    0.980885   -1.366240
 H   -2.152073    3.176717   -1.564808
 H    3.661082    4.851099   -0.380724
 H    5.967563    4.197073    0.338080
 H    5.942022   -0.076796    0.839609
 H    4.797017   -4.548036    0.324345
 H    2.334057   -4.584937    0.064325
 H    2.314396   -0.312138    0.420064
 H    0.446254   -1.359135    0.131172
 H   -0.653244   -0.833448   -1.627382
 H   -2.809896    0.190254   -2.065359
 H   -4.798474   -3.197560   -0.331289
 H   -2.589998   -4.257168    0.099631
 H   -5.308140   -0.149527   -2.294382
 H   -6.094802   -1.460388   -1.422764
 H   -4.723473    1.803572   -1.264218
 H   -5.766817    2.267916    0.077407
 H   -3.458323    2.611510    0.791938
 H   -2.990893    0.982229    0.295672
 H   -5.912243    2.206108    2.466391
 H   -4.364511    2.927920    2.950671
 H   -5.018150    1.551896    3.852955
 H   -4.938341   -0.622517    2.947293
 H   -3.897738   -0.937862    1.552728
 H   -6.743335    0.208595    1.497780
 H   -6.248360   -1.377797    0.915253
 H    6.817488   -2.031470    1.557413
 H    6.951968   -1.864750   -0.202040
 H    6.852427   -3.464588    0.533865

$nbo bndidx $end

