molecule { 
0 1
 O    0.689641    0.036170    0.013883
 C   -0.746115    0.019216    0.005882
 H   -1.094115   -0.338224    0.978792
 H   -1.088038   -0.625291   -0.808398
 H   -1.092756    1.043249   -0.161765
 H    0.967591   -0.848690   -0.287531
}
set optking { 
  frozen_dihedral = ("
  ")
}
memory 700MB
set_num_threads(1)
psi4_io.set_default_path("/scratch/bdw2292")
optimize('hf/6-311G*')
clean()
