molecule { 
0 1
 O    0.702144    0.019164    0.080728
 C   -0.732980    0.061160    0.066744
 H   -1.048705    1.100145   -0.061840
 H   -1.101784   -0.364446    1.003898
 H   -1.083799   -0.540110   -0.777065
 H    0.942910   -0.899020   -0.143241
}
set {
 basis 6-311++G(2d,2p)
 e_convergence 10 
 d_convergence 10 
 scf_type pk
 pcm true
  pcm_scf_type total 
}
pcm = {
 Units = Angstrom
 Medium {
 SolverType = IEFPCM
 Solvent = Water
 }
 Cavity {
 RadiiSet = UFF
 Type = GePol
 Scaling = False
 Area = 0.3
 Mode = Implicit
 }
}
memory 700MB
set_num_threads(1)
psi4_io.set_default_path("/scratch/bdw2292")
set freeze_core True
E, wfn = energy('mp2/6-311++G(2d,2p)',return_wfn=True)
clean()
