molecule { 
0 1
 O    0.689155    0.041101    0.003484
 C   -0.746309    0.015830    0.012079
 H   -1.100882    0.073343   -1.020574
 H   -1.104853    0.855425    0.613937
 H   -1.067482   -0.927763    0.462750
 H    0.967777   -0.844635   -0.294957
}
set optking { 
  frozen_dihedral = ("
  ")
}
memory 700MB
set_num_threads(1)
psi4_io.set_default_path("/scratch/bdw2292")
optimize('hf/6-311G*')
clean()
