molecule { 
0 1
 O    0.696068    0.168051   -0.151842
 C   -0.735008    0.109748   -0.042896
 H   -1.065276   -0.918400   -0.213329
 H   -1.166507    0.798567   -0.774257
 H   -1.006582    0.421445    0.969995
 H    0.975551   -0.702232   -0.491455
}
set {
 basis 6-311++G(2d,2p)
 e_convergence 10 
 d_convergence 10 
 scf_type pk
 pcm true
  pcm_scf_type total 
}
pcm = {
 Units = Angstrom
 Medium {
 SolverType = IEFPCM
 Solvent = Water
 }
 Cavity {
 RadiiSet = UFF
 Type = GePol
 Scaling = False
 Area = 0.3
 Mode = Implicit
 }
}
memory 700MB
set_num_threads(1)
psi4_io.set_default_path("/scratch/bdw2292")
set freeze_core True
E, wfn = energy('mp2/6-311++G(2d,2p)',return_wfn=True)
clean()
