molecule { 
0 1
 O    0.689547    0.041153    0.002129
 C   -0.746677    0.015093    0.011857
 H   -1.112924    0.900998   -0.514154
 H   -1.085454   -0.012348    1.051085
 H   -1.080294   -0.887113   -0.508860
 H    0.973003   -0.843788   -0.293531
}
set optking { 
  frozen_dihedral = ("
  ")
}
memory 700MB
set_num_threads(1)
psi4_io.set_default_path("/scratch/bdw2292")
optimize('hf/6-311G*')
clean()
