molecule { 
0 1
 O    0.700772    0.062230   -0.044508
 C   -0.734425    0.073195   -0.007687
 H   -1.107004    0.206539   -1.026909
 H   -1.058686    0.880938    0.654214
 H   -1.072171   -0.889085    0.388001
 H    0.949732   -0.809152   -0.404982
}
set {
 basis 6-311++G(2d,2p)
 e_convergence 10 
 d_convergence 10 
 scf_type pk
 pcm true
  pcm_scf_type total 
}
pcm = {
 Units = Angstrom
 Medium {
 SolverType = IEFPCM
 Solvent = Water
 }
 Cavity {
 RadiiSet = UFF
 Type = GePol
 Scaling = False
 Area = 0.3
 Mode = Implicit
 }
}
memory 700MB
set_num_threads(1)
psi4_io.set_default_path("/scratch/bdw2292")
set freeze_core True
E, wfn = energy('mp2/6-311++G(2d,2p)',return_wfn=True)
clean()
