molecule { 
0 1
 O    0.700714    0.015731    0.116755
 C   -0.734532    0.036871    0.079810
 H   -1.111584   -0.339512    1.034581
 H   -1.076118   -0.574360   -0.759873
 H   -1.051134    1.074146   -0.064173
 H    0.961908   -0.866975   -0.205252
}
set {
 basis 6-311++G(2d,2p)
 e_convergence 10 
 d_convergence 10 
 scf_type pk
 pcm true
  pcm_scf_type total 
}
pcm = {
 Units = Angstrom
 Medium {
 SolverType = IEFPCM
 Solvent = Water
 }
 Cavity {
 RadiiSet = UFF
 Type = GePol
 Scaling = False
 Area = 0.3
 Mode = Implicit
 }
}
memory 700MB
set_num_threads(1)
psi4_io.set_default_path("/scratch/bdw2292")
set freeze_core True
E, wfn = energy('mp2/6-311++G(2d,2p)',return_wfn=True)
clean()
