molecule { 
0 1
 O    0.705384    0.140466   -0.092313
 C   -0.730544    0.104195   -0.080908
 H   -1.097454    0.639165   -0.961069
 H   -1.081377    0.559080    0.849502
 H   -1.050596   -0.940856   -0.124179
 H    0.994351   -0.741158   -0.392569
}
set {
 basis 6-311++G(2d,2p)
 e_convergence 10 
 d_convergence 10 
 scf_type pk
 pcm true
  pcm_scf_type total 
}
pcm = {
 Units = Angstrom
 Medium {
 SolverType = IEFPCM
 Solvent = Water
 }
 Cavity {
 RadiiSet = UFF
 Type = GePol
 Scaling = False
 Area = 0.3
 Mode = Implicit
 }
}
memory 700MB
set_num_threads(1)
psi4_io.set_default_path("/scratch/bdw2292")
set freeze_core True
E, wfn = energy('mp2/6-311++G(2d,2p)',return_wfn=True)
clean()
