molecule { 
0 1
 O    0.689190    0.040422    0.005107
 C   -0.746204    0.016335    0.011492
 H   -1.094230   -0.416856   -0.930121
 H   -1.110234    1.038436    0.147492
 H   -1.068160   -0.608914    0.849370
 H    0.966945   -0.845192   -0.294548
}
set optking { 
  frozen_dihedral = ("
  ")
}
memory 700MB
set_num_threads(1)
psi4_io.set_default_path("/scratch/bdw2292")
optimize('hf/6-311G*')
clean()
