molecule { 
0 1
 O    0.689412    0.036609    0.013705
 C   -0.746016    0.019689    0.004696
 H   -1.107289    0.949503    0.452610
 H   -1.089503   -0.858434    0.558170
 H   -1.075257   -0.045175   -1.036464
 H    0.965642   -0.849888   -0.284780
}
set optking { 
  frozen_dihedral = ("
  ")
}
memory 700MB
set_num_threads(1)
psi4_io.set_default_path("/scratch/bdw2292")
optimize('hf/6-311G*')
clean()
