molecule { 
0 1
 O    0.698561    0.045532    0.015638
 C   -0.736761    0.031930    0.009941
 H   -1.081086   -0.741225    0.702101
 H   -1.079853   -0.154751   -1.011273
 H   -1.083293    1.013798    0.345775
 H    0.971182   -0.840526   -0.287455
}
set {
 basis 6-311++G(2d,2p)
 e_convergence 10 
 d_convergence 10 
 scf_type pk
 pcm true
  pcm_scf_type total 
}
pcm = {
 Units = Angstrom
 Medium {
 SolverType = IEFPCM
 Solvent = Water
 }
 Cavity {
 RadiiSet = UFF
 Type = GePol
 Scaling = False
 Area = 0.3
 Mode = Implicit
 }
}
memory 700MB
set_num_threads(1)
psi4_io.set_default_path("/scratch/bdw2292")
set freeze_core True
E, wfn = energy('mp2/6-311++G(2d,2p)',return_wfn=True)
clean()
