molecule { 
0 1
 O    0.689709    0.039228    0.006809
 C   -0.746502    0.015926    0.010811
 H   -1.088243   -1.007718   -0.164001
 H   -1.106282    0.699115   -0.763389
 H   -1.084103    0.354667    0.994747
 H    0.972163   -0.844063   -0.294633
}
set optking { 
  frozen_dihedral = ("
  ")
}
memory 700MB
set_num_threads(1)
psi4_io.set_default_path("/scratch/bdw2292")
optimize('hf/6-311G*')
clean()
