molecule { 
0 1
 O    0.707385    0.072303    0.191652
 C   -0.728205    0.040952    0.153218
 H   -1.105588    0.204639    1.166307
 H   -1.054693   -0.922165   -0.248021
 H   -1.063214    0.847629   -0.505465
 H    1.003361   -0.815900   -0.080978
}
set {
 basis 6-311++G(2d,2p)
 e_convergence 10 
 d_convergence 10 
 scf_type pk
 pcm true
  pcm_scf_type total 
}
pcm = {
 Units = Angstrom
 Medium {
 SolverType = IEFPCM
 Solvent = Water
 }
 Cavity {
 RadiiSet = UFF
 Type = GePol
 Scaling = False
 Area = 0.3
 Mode = Implicit
 }
}
memory 700MB
set_num_threads(1)
psi4_io.set_default_path("/scratch/bdw2292")
set freeze_core True
E, wfn = energy('mp2/6-311++G(2d,2p)',return_wfn=True)
clean()
