molecule { 
0 1
 O    0.699838    0.040354    0.057162
 C   -0.735586    0.030360    0.036261
 H   -1.069895   -0.395505   -0.913634
 H   -1.092145    1.055424    0.169743
 H   -1.079479   -0.595138    0.865190
 H    0.974568   -0.846711   -0.240990
}
set {
 basis 6-311++G(2d,2p)
 e_convergence 10 
 d_convergence 10 
 scf_type pk
 pcm true
  pcm_scf_type total 
}
pcm = {
 Units = Angstrom
 Medium {
 SolverType = IEFPCM
 Solvent = Water
 }
 Cavity {
 RadiiSet = UFF
 Type = GePol
 Scaling = False
 Area = 0.3
 Mode = Implicit
 }
}
memory 700MB
set_num_threads(1)
psi4_io.set_default_path("/scratch/bdw2292")
set freeze_core True
E, wfn = energy('mp2/6-311++G(2d,2p)',return_wfn=True)
clean()
