molecule { 
0 1
 O    0.698657    0.063556   -0.033316
 C   -0.735584    0.038352    0.022742
 H   -1.082399    0.974656    0.468563
 H   -1.048091   -0.830755    0.607896
 H   -1.110890   -0.048628   -1.001079
 H    0.966951   -0.827014   -0.326888
}
set {
 basis 6-311++G(2d,2p)
 e_convergence 10 
 d_convergence 10 
 scf_type pk
 pcm true
  pcm_scf_type total 
}
pcm = {
 Units = Angstrom
 Medium {
 SolverType = IEFPCM
 Solvent = Water
 }
 Cavity {
 RadiiSet = UFF
 Type = GePol
 Scaling = False
 Area = 0.3
 Mode = Implicit
 }
}
memory 700MB
set_num_threads(1)
psi4_io.set_default_path("/scratch/bdw2292")
set freeze_core True
E, wfn = energy('mp2/6-311++G(2d,2p)',return_wfn=True)
clean()
