molecule { 
0 1
 O    0.704663    0.054983    0.179478
 C   -0.730703    0.058034    0.122562
 H   -1.052825    0.930044   -0.453181
 H   -1.117733    0.077650    1.144988
 H   -1.059475   -0.856798   -0.378836
 H    0.982179   -0.846228   -0.068879
}
set {
 basis 6-311++G(2d,2p)
 e_convergence 10 
 d_convergence 10 
 scf_type pk
 pcm true
  pcm_scf_type total 
}
pcm = {
 Units = Angstrom
 Medium {
 SolverType = IEFPCM
 Solvent = Water
 }
 Cavity {
 RadiiSet = UFF
 Type = GePol
 Scaling = False
 Area = 0.3
 Mode = Implicit
 }
}
memory 700MB
set_num_threads(1)
psi4_io.set_default_path("/scratch/bdw2292")
set freeze_core True
E, wfn = energy('mp2/6-311++G(2d,2p)',return_wfn=True)
clean()
