molecule { 
0 1
 O    0.697514    0.048094    0.176143
 C   -0.735160    0.037917    0.075078
 H   -1.042256   -0.799901   -0.556593
 H   -1.060480    0.996230   -0.339007
 H   -1.140948   -0.090909    1.082767
 H    0.990524   -0.846712   -0.077660
}
set {
 basis 6-311++G(2d,2p)
 e_convergence 10 
 d_convergence 10 
 scf_type pk
 pcm true
  pcm_scf_type total 
}
pcm = {
 Units = Angstrom
 Medium {
 SolverType = IEFPCM
 Solvent = Water
 }
 Cavity {
 RadiiSet = UFF
 Type = GePol
 Scaling = False
 Area = 0.3
 Mode = Implicit
 }
}
memory 700MB
set_num_threads(1)
psi4_io.set_default_path("/scratch/bdw2292")
set freeze_core True
E, wfn = energy('mp2/6-311++G(2d,2p)',return_wfn=True)
clean()
