molecule { 
0 1
 O    0.698107    0.117717   -0.116917
 C   -0.734147    0.086805   -0.015413
 H   -1.032223    0.664590    0.863780
 H   -1.063746   -0.953318    0.053932
 H   -1.143963    0.545025   -0.920270
 H    0.960483   -0.754421   -0.465530
}
set {
 basis 6-311++G(2d,2p)
 e_convergence 10 
 d_convergence 10 
 scf_type pk
 pcm true
  pcm_scf_type total 
}
pcm = {
 Units = Angstrom
 Medium {
 SolverType = IEFPCM
 Solvent = Water
 }
 Cavity {
 RadiiSet = UFF
 Type = GePol
 Scaling = False
 Area = 0.3
 Mode = Implicit
 }
}
memory 700MB
set_num_threads(1)
psi4_io.set_default_path("/scratch/bdw2292")
set freeze_core True
E, wfn = energy('mp2/6-311++G(2d,2p)',return_wfn=True)
clean()
