molecule { 
0 1
 O    0.689656    0.039448    0.006363
 C   -0.746420    0.016095    0.010808
 H   -1.091775   -0.807043   -0.620406
 H   -1.110158    0.981947   -0.350415
 H   -1.075392   -0.145488    1.041519
 H    0.971202   -0.844553   -0.293997
}
set optking { 
  frozen_dihedral = ("
  ")
}
memory 700MB
set_num_threads(1)
psi4_io.set_default_path("/scratch/bdw2292")
optimize('hf/6-311G*')
clean()
