molecule { 
0 1
 O    0.698902    0.096891   -0.056232
 C   -0.736065    0.050228   -0.045207
 H   -1.054650   -0.942376    0.284355
 H   -1.098347    0.279043   -1.051090
 H   -1.090992    0.806897    0.660762
 H    0.990549   -0.784119   -0.356050
}
set {
 basis 6-311++G(2d,2p)
 e_convergence 10 
 d_convergence 10 
 scf_type pk
 pcm true
  pcm_scf_type total 
}
pcm = {
 Units = Angstrom
 Medium {
 SolverType = IEFPCM
 Solvent = Water
 }
 Cavity {
 RadiiSet = UFF
 Type = GePol
 Scaling = False
 Area = 0.3
 Mode = Implicit
 }
}
memory 700MB
set_num_threads(1)
psi4_io.set_default_path("/scratch/bdw2292")
set freeze_core True
E, wfn = energy('mp2/6-311++G(2d,2p)',return_wfn=True)
clean()
