molecule { 
0 1
 C   -1.326655   -0.787812    0.268088
 C   -2.451699    0.232852    0.055167
 C    0.092167   -0.272562    0.096590
 C   -3.837074   -0.389834    0.247258
 C    0.438346    1.067739    0.296003
 C    1.094954   -1.153506   -0.325784
 C    1.748976    1.504948    0.110087
 C    2.405214   -0.722114   -0.510978
 C    2.738571    0.612422   -0.291024
 H   -1.477643   -1.623719   -0.421695
 H   -1.431125   -1.209856    1.275239
 H   -2.342414    1.060778    0.760125
 H   -2.365192    0.661583   -0.947332
 H   -3.948006   -0.787648    1.258667
 H   -4.627057    0.346160    0.088101
 H   -3.998906   -1.211674   -0.454164
 H   -0.312105    1.783049    0.600582
 H    0.843053   -2.190672   -0.510542
 H    1.993433    2.545990    0.273804
 H    3.162080   -1.423967   -0.834800
 H    3.754375    0.952951   -0.437946
}
memory 700MB
set_num_threads(8)
psi4_io.set_default_path("/home/daniele/PSI4_sctatch/Psi4-propbenzene")
set freeze_core True
E, wfn = energy('wb97x-d/6-311+G*',return_wfn=True)
oeprop(wfn,"WIBERG_LOWDIN_INDICES")
clean()
