molecule { 
0 1
 C   -1.522935    0.346103    0.271488
 C   -2.175215   -1.027553    0.033907
 C   -0.023208    0.318300    0.078894
 C   -3.692871   -1.002967    0.229529
 C    0.835809    0.112661    1.163135
 C    0.539177    0.549141   -1.180864
 C    2.217973    0.095490    0.987719
 C    1.920356    0.533633   -1.361607
 C    2.764639    0.302609   -0.277130
 H   -1.758015    0.682541    1.285684
 H   -1.968455    1.075707   -0.411647
 H   -1.934765   -1.363858   -0.979221
 H   -1.722998   -1.755533    0.714266
 H   -4.165158   -0.303744   -0.464809
 H   -4.130015   -1.988914    0.061800
 H   -3.950884   -0.689714    1.244085
 H    0.417330   -0.038170    2.150904
 H   -0.111538    0.741095   -2.025540
 H    2.866357   -0.070864    1.837711
 H    2.336583    0.710217   -2.344532
 H    3.837339    0.293417   -0.414675
}
memory 700MB
set_num_threads(8)
psi4_io.set_default_path("/home/daniele/PSI4_sctatch/Psi4-propbenzene")
set freeze_core True
E, wfn = energy('wb97x-d/6-311+G*',return_wfn=True)
oeprop(wfn,"WIBERG_LOWDIN_INDICES")
clean()
