molecule { 
0 1
 C   -1.494716    0.234996    0.444602
 C   -2.218199   -0.977291   -0.166345
 C   -0.003826    0.260600    0.178592
 C   -3.720964   -0.969385    0.124011
 C    0.913056    0.324280    1.231879
 C    0.490243    0.275435   -1.131318
 C    2.284803    0.374127    0.988507
 C    1.859226    0.326050   -1.379736
 C    2.762765    0.372866   -0.319270
 H   -1.669723    0.246926    1.524115
 H   -1.948581    1.150874    0.049191
 H   -2.056478   -0.993990   -1.247660
 H   -1.766504   -1.892949    0.226071
 H   -4.193909   -0.074676   -0.288195
 H   -4.213106   -1.840262   -0.312629
 H   -3.911413   -0.981185    1.199816
 H    0.549313    0.328608    2.251955
 H   -0.200939    0.252536   -1.964528
 H    2.977224    0.417247    1.818700
 H    2.220374    0.334537   -2.399583
 H    3.826372    0.412865   -0.511036
}
memory 700MB
set_num_threads(8)
psi4_io.set_default_path("/home/daniele/PSI4_sctatch/Psi4-propbenzene")
set freeze_core True
E, wfn = energy('wb97x-d/6-311+G*',return_wfn=True)
oeprop(wfn,"WIBERG_LOWDIN_INDICES")
clean()
