molecule { 
0 1
 C   -1.384745   -0.303365    0.670920
 C   -2.361306   -0.461816   -0.502436
 C    0.062500   -0.026220    0.303498
 C   -3.791184   -0.733950   -0.027910
 C    0.840120    0.791277    1.131901
 C    0.647468   -0.518837   -0.867884
 C    2.165859    1.082062    0.821825
 C    1.973828   -0.229403   -1.183372
 C    2.739793    0.569705   -0.339195
 H   -1.429047   -1.214475    1.280404
 H   -1.740561    0.504815    1.316812
 H   -2.332753    0.440732   -1.119480
 H   -2.043961   -1.288067   -1.143285
 H   -4.161527    0.086516    0.591215
 H   -4.473253   -0.850102   -0.871971
 H   -3.836003   -1.648294    0.568376
 H    0.399184    1.203862    2.031077
 H    0.072883   -1.137577   -1.542546
 H    2.746455    1.713789    1.480739
 H    2.405781   -0.625311   -2.092789
 H    3.767937    0.796464   -0.586026
}
memory 700MB
set_num_threads(8)
psi4_io.set_default_path("/home/daniele/PSI4_sctatch/Psi4-propbenzene")
set freeze_core True
E, wfn = energy('wb97x-d/6-311+G*',return_wfn=True)
oeprop(wfn,"WIBERG_LOWDIN_INDICES")
clean()
