molecule { 
0 1
 C   -1.330504   -0.377976    0.965586
 C   -2.446016    0.259221    0.089511
 C    0.061527   -0.108006    0.440096
 C   -3.419020   -0.776182   -0.482538
 C    0.746634    1.058786    0.795172
 C    0.673931   -0.993804   -0.452679
 C    2.007435    1.335533    0.271100
 C    1.934624   -0.720889   -0.979969
 C    2.605209    0.446332   -0.620284
 H   -1.488862   -1.458867    1.017236
 H   -1.404922   -0.010265    1.991915
 H   -3.003603    0.994239    0.676201
 H   -1.984005    0.812237   -0.731794
 H   -3.921752   -1.324800    0.317461
 H   -4.185660   -0.303635   -1.099591
 H   -2.888777   -1.502391   -1.103645
 H    0.288795    1.752504    1.489778
 H    0.159946   -1.905357   -0.732247
 H    2.522883    2.241995    0.559676
 H    2.393160   -1.419073   -1.667656
 H    3.584654    0.658688   -1.026848
}
memory 700MB
set_num_threads(8)
psi4_io.set_default_path("/home/daniele/PSI4_sctatch/Psi4-propbenzene")
set freeze_core True
E, wfn = energy('wb97x-d/6-311+G*',return_wfn=True)
oeprop(wfn,"WIBERG_LOWDIN_INDICES")
clean()
