molecule { 
0 1
 C   -1.337044   -0.798685    0.070692
 C   -2.449889    0.233688    0.272284
 C    0.083838   -0.265102   -0.007260
 C   -3.834449   -0.416188    0.331962
 C    0.389827    1.098110    0.019441
 C    1.138311   -1.173578   -0.164472
 C    1.709316    1.538094   -0.088675
 C    2.454856   -0.739342   -0.273617
 C    2.746496    0.623210   -0.234836
 H   -1.545510   -1.359053   -0.847587
 H   -1.390030   -1.530790    0.884257
 H   -2.268041    0.792610    1.195012
 H   -2.428806    0.959530   -0.545821
 H   -3.898530   -1.125127    1.160698
 H   -4.616549    0.332248    0.470219
 H   -4.050366   -0.960605   -0.590223
 H   -0.396938    1.830081    0.130499
 H    0.920185   -2.234275   -0.198705
 H    1.923056    2.598180   -0.060793
 H    3.251638   -1.461609   -0.391188
 H    3.768705    0.965652   -0.319532
}
memory 700MB
set_num_threads(8)
psi4_io.set_default_path("/home/daniele/PSI4_sctatch/Psi4-propbenzene")
set freeze_core True
E, wfn = energy('wb97x-d/6-311+G*',return_wfn=True)
oeprop(wfn,"WIBERG_LOWDIN_INDICES")
clean()
