molecule { 
0 1
 C   -1.143733   -1.462824    0.381142
 C   -2.466162   -0.930521   -0.234096
 C    0.053140   -0.553805    0.208935
 C   -2.616568    0.592874   -0.259639
 C    0.331157    0.458773    1.133286
 C    0.897831   -0.691520   -0.897550
 C    1.414948    1.314844    0.953265
 C    1.983540    0.162323   -1.082926
 C    2.244201    1.170716   -0.157656
 H   -0.924495   -2.446323   -0.040134
 H   -1.297663   -1.616852    1.454128
 H   -2.535909   -1.291053   -1.265865
 H   -3.305074   -1.381911    0.302027
 H   -1.823434    1.056668   -0.846619
 H   -3.575500    0.870893   -0.700999
 H   -2.574157    1.020966    0.744806
 H   -0.305627    0.573854    2.001643
 H    0.701023   -1.474953   -1.619263
 H    1.613609    2.091264    1.680050
 H    2.625028    0.038841   -1.945390
 H    3.087008    1.833967   -0.297342
}
memory 700MB
set_num_threads(8)
psi4_io.set_default_path("/home/daniele/PSI4_sctatch/Psi4-propbenzene")
set freeze_core True
E, wfn = energy('wb97x-d/6-311+G*',return_wfn=True)
oeprop(wfn,"WIBERG_LOWDIN_INDICES")
clean()
