molecule { 
0 1
 C   -1.316508   -0.835734    0.252015
 C   -2.473447    0.185821    0.037914
 C    0.122570   -0.294113    0.077990
 C   -3.877362   -0.425690    0.223344
 C    0.450518    1.070180    0.283881
 C    1.151349   -1.170518   -0.350915
 C    1.765576    1.534956    0.084529
 C    2.465083   -0.704392   -0.550255
 C    2.773740    0.648757   -0.331246
 H   -1.464554   -1.678631   -0.436505
 H   -1.395612   -1.264415    1.260023
 H   -2.358307    1.020919    0.740115
 H   -2.385420    0.622165   -0.966075
 H   -4.005465   -0.826057    1.234757
 H   -4.652922    0.330904    0.062863
 H   -4.052452   -1.238577   -0.489492
 H   -0.302532    1.786810    0.603453
 H    0.934436   -2.222681   -0.531236
 H    2.001651    2.584233    0.252681
 H    3.242893   -1.393024   -0.875242
 H    3.788995    1.009565   -0.484314
}
set optking { 
  frozen_dihedral = ("
    2 1 3 5
    2 1 3 6
    4 2 1 3
    1 2 4 14
  ")
}
set {
  geom_maxiter 400
  g_convergence GAU_LOOSE
  dynamic_level 1
}
memory 700MB
set_num_threads(8)
psi4_io.set_default_path("/home/daniele/PSI4_sctatch/Psi4-propbenzene")
for _ in range(1):
  try:
    set opt_coordinates both
    optimize('wb97x-d/6-311G')
    break
  except OptimizationConvergenceError:
    break
  else:
    try:
      set opt_coordinates cartesian
      optimize('wb97x-d/6-311G')
      break
    except OptimizationConvergenceError:
      pass
clean()
