molecule { 
0 1
 C   -1.427483   -0.117078    0.617297
 C   -2.330645   -0.677242   -0.485059
 C    0.040069    0.069508    0.268874
 C   -3.783278   -0.817849   -0.023436
 C    0.890175    0.652729    1.217098
 C    0.577976   -0.267360   -0.976047
 C    2.235318    0.873119    0.941903
 C    1.926945   -0.048283   -1.256314
 C    2.761082    0.520702   -0.300029
 H   -1.498076   -0.774774    1.491181
 H   -1.830311    0.849387    0.939431
 H   -2.288109   -0.022487   -1.360392
 H   -1.957020   -1.654839   -0.803549
 H   -4.195789    0.150197    0.270273
 H   -4.412635   -1.222964   -0.817570
 H   -3.856926   -1.486778    0.837118
 H    0.488600    0.934193    2.183194
 H   -0.048672   -0.706787   -1.738468
 H    2.871451    1.322719    1.692583
 H    2.322307   -0.320532   -2.225746
 H    3.806195    0.691239   -0.519103
}
memory 700MB
set_num_threads(8)
psi4_io.set_default_path("/home/daniele/PSI4_sctatch/Psi4-propbenzene")
set freeze_core True
E, wfn = energy('wb97x-d/6-311+G*',return_wfn=True)
oeprop(wfn,"WIBERG_LOWDIN_INDICES")
clean()
