molecule { 
0 1
 C   -1.332904   -0.490374    0.715602
 C   -2.353708   -0.231825   -0.406103
 C    0.086112   -0.124137    0.335700
 C   -3.780411   -0.608471    0.000157
 C    0.770973    0.893997    1.005137
 C    0.727183   -0.764170   -0.731717
 C    2.062215    1.259447    0.627282
 C    2.017009   -0.403806   -1.112136
 C    2.689659    0.611219   -0.433396
 H   -1.376815   -1.549803    0.992660
 H   -1.628244    0.073037    1.605225
 H   -2.311023    0.824851   -0.685662
 H   -2.065622   -0.796970   -1.296946
 H   -4.106460   -0.028547    0.866864
 H   -4.485164   -0.420946   -0.811891
 H   -3.845416   -1.666935    0.263821
 H    0.288332    1.405130    1.828980
 H    0.216496   -1.557806   -1.263104
 H    2.574962    2.049732    1.159317
 H    2.496600   -0.913701   -1.937113
 H    3.691367    0.892624   -0.728435
}
memory 700MB
set_num_threads(8)
psi4_io.set_default_path("/home/daniele/PSI4_sctatch/Psi4-propbenzene")
set freeze_core True
E, wfn = energy('wb97x-d/6-311+G*',return_wfn=True)
oeprop(wfn,"WIBERG_LOWDIN_INDICES")
clean()
