molecule { 
0 1
 C   -1.219881   -1.234786    0.381137
 C   -2.362584   -0.703791   -0.516596
 C    0.071836   -0.468603    0.201613
 C   -3.189453    0.400706    0.146666
 C    0.331468    0.692458    0.938388
 C    1.022071   -0.886253   -0.736467
 C    1.501394    1.422106    0.736461
 C    2.193718   -0.160805   -0.940931
 C    2.435923    0.998410   -0.206287
 H   -1.036589   -2.286620    0.146227
 H   -1.535412   -1.199532    1.427785
 H   -1.941003   -0.345587   -1.459364
 H   -3.028734   -1.534660   -0.768769
 H   -2.567298    1.263431    0.396464
 H   -3.985959    0.747417   -0.514291
 H   -3.649644    0.037735    1.068648
 H   -0.384756    1.020150    1.681646
 H    0.841555   -1.787783   -1.309348
 H    1.684371    2.316842    1.316559
 H    2.916994   -0.501081   -1.670139
 H    3.345667    1.561910   -0.362848
}
memory 700MB
set_num_threads(8)
psi4_io.set_default_path("/home/daniele/PSI4_sctatch/Psi4-propbenzene")
set freeze_core True
E, wfn = energy('wb97x-d/6-311+G*',return_wfn=True)
oeprop(wfn,"WIBERG_LOWDIN_INDICES")
clean()
