molecule { 
0 1
 C   -1.273715   -0.861094    0.505060
 C   -2.351720   -0.280339   -0.439044
 C    0.106676   -0.305073    0.237066
 C   -3.739925   -0.227776    0.204351
 C    0.523062    0.886356    0.840303
 C    0.977057   -0.938979   -0.655151
 C    1.773842    1.431187    0.559103
 C    2.229205   -0.397560   -0.940195
 C    2.631168    0.790690   -0.333862
 H   -1.263195   -1.951675    0.433097
 H   -1.551033   -0.623479    1.537254
 H   -2.057167    0.734309   -0.722476
 H   -2.380270   -0.858979   -1.366412
 H   -3.724978    0.401260    1.097413
 H   -4.481886    0.179956   -0.484581
 H   -4.074968   -1.223405    0.506044
 H   -0.137365    1.387115    1.538035
 H    0.671371   -1.865211   -1.126242
 H    2.080057    2.351836    1.037887
 H    2.889729   -0.902952   -1.632213
 H    3.603479    1.211372   -0.551465
}
memory 700MB
set_num_threads(8)
psi4_io.set_default_path("/home/daniele/PSI4_sctatch/Psi4-propbenzene")
set freeze_core True
E, wfn = energy('wb97x-d/6-311+G*',return_wfn=True)
oeprop(wfn,"WIBERG_LOWDIN_INDICES")
clean()
