molecule { 
0 1
 C   -1.118451   -1.507090    0.368611
 C   -2.502768   -0.930007   -0.079114
 C    0.054640   -0.565147    0.217724
 C   -2.489022    0.507524   -0.610055
 C    0.389597    0.330258    1.239245
 C    0.820128   -0.551361   -0.952866
 C    1.448351    1.223230    1.091982
 C    1.881100    0.338855   -1.105567
 C    2.197732    1.231087   -0.083158
 H   -0.909380   -2.414956   -0.201676
 H   -1.182335   -1.816369    1.414370
 H   -2.922304   -1.581024   -0.850113
 H   -3.194328   -0.982130    0.765626
 H   -1.851780    0.602863   -1.490735
 H   -3.499392    0.813754   -0.888815
 H   -2.116354    1.209282    0.137563
 H   -0.188637    0.326923    2.155463
 H    0.579493   -1.243744   -1.750615
 H    1.689928    1.908831    1.893339
 H    2.461151    0.333604   -2.018897
 H    3.021731    1.921983   -0.199060
}
memory 700MB
set_num_threads(8)
psi4_io.set_default_path("/home/daniele/PSI4_sctatch/Psi4-propbenzene")
set freeze_core True
E, wfn = energy('wb97x-d/6-311+G*',return_wfn=True)
oeprop(wfn,"WIBERG_LOWDIN_INDICES")
clean()
