molecule { 
0 1
 C   -1.384709   -0.311678    1.180379
 C   -2.559575    0.246343    0.329373
 C   -0.015763   -0.076697    0.527049
 C   -3.130956   -0.763752   -0.685942
 C    0.690050    1.132136    0.738927
 C    0.546313   -1.047421   -0.335851
 C    1.935833    1.354559    0.120541
 C    1.791308   -0.823721   -0.954959
 C    2.488251    0.375915   -0.724925
 H   -1.532660   -1.375529    1.407601
 H   -1.390074    0.182933    2.161060
 H   -3.366026    0.548797    1.011414
 H   -2.253212    1.173608   -0.172949
 H   -3.518317   -1.656485   -0.183294
 H   -3.954170   -0.317228   -1.253691
 H   -2.365983   -1.078369   -1.403705
 H    0.274837    1.904417    1.385133
 H    0.018516   -1.980125   -0.529603
 H    2.472063    2.285309    0.296537
 H    2.215075   -1.580012   -1.613156
 H    3.451432    0.547476   -1.201657
}
set optking { 
  frozen_dihedral = ("
    4 2 1 3
    2 1 3 5
    2 1 3 6
    1 2 4 14
  ")
}
set {
  geom_maxiter 400
  g_convergence GAU_LOOSE
  dynamic_level 1
}
memory 700MB
set_num_threads(8)
psi4_io.set_default_path("/home/daniele/PSI4_sctatch/Psi4-propbenzene")
for _ in range(1):
  try:
    set opt_coordinates both
    optimize('wb97x-d/6-311G')
    break
  except OptimizationConvergenceError:
    break
  else:
    try:
      set opt_coordinates cartesian
      optimize('wb97x-d/6-311G')
      break
    except OptimizationConvergenceError:
      pass
clean()
