molecule { 
0 1
 C   -1.358982   -0.761326   -0.114058
 C   -2.412859    0.171639    0.497962
 C    0.070129   -0.248698   -0.112270
 C   -3.817543   -0.435133    0.448020
 C    0.380583    1.106700   -0.265050
 C    1.129059   -1.158031   -0.008124
 C    1.705233    1.538382   -0.303861
 C    2.453843   -0.731709   -0.048161
 C    2.747538    0.621785   -0.196282
 H   -1.651350   -0.981469   -1.148016
 H   -1.388132   -1.718515    0.415371
 H   -2.136121    0.398922    1.531383
 H   -2.425157    1.123812   -0.038179
 H   -3.857916   -1.375293    1.003121
 H   -4.556846    0.240857    0.881177
 H   -4.115494   -0.642986   -0.582333
 H   -0.410568    1.837899   -0.353260
 H    0.910337   -2.212183    0.110787
 H    1.921261    2.592115   -0.419574
 H    3.254431   -1.454210    0.037985
 H    3.775120    0.957396   -0.226055
}
memory 700MB
set_num_threads(8)
psi4_io.set_default_path("/home/daniele/PSI4_sctatch/Psi4-propbenzene")
set freeze_core True
E, wfn = energy('wb97x-d/6-311+G*',return_wfn=True)
oeprop(wfn,"WIBERG_LOWDIN_INDICES")
clean()
