molecule { 
0 1
 C   -1.298222   -0.677212    0.639227
 C   -2.359207   -0.060075   -0.289304
 C    0.102723   -0.225065    0.294927
 C   -3.779648   -0.514420    0.054178
 C    0.620184    0.961068    0.825666
 C    0.888744   -0.950115   -0.606259
 C    1.889088    1.410978    0.467953
 C    2.158296   -0.504022   -0.967670
 C    2.662339    0.679273   -0.431519
 H   -1.360755   -1.767964    0.578361
 H   -1.530163   -0.408096    1.674412
 H   -2.291141    1.030387   -0.230319
 H   -2.121469   -0.326811   -1.323522
 H   -4.045470   -0.227954    1.074615
 H   -4.512339   -0.068552   -0.620885
 H   -3.871304   -1.600644   -0.021152
 H    0.024896    1.532525    1.527692
 H    0.503221   -1.871972   -1.024770
 H    2.274092    2.328862    0.892021
 H    2.752891   -1.079554   -1.664662
 H    3.648350    1.026068   -0.709354
}
memory 700MB
set_num_threads(8)
psi4_io.set_default_path("/home/daniele/PSI4_sctatch/Psi4-propbenzene")
set freeze_core True
E, wfn = energy('wb97x-d/6-311+G*',return_wfn=True)
oeprop(wfn,"WIBERG_LOWDIN_INDICES")
clean()
