molecule { 
0 1
 C   -1.311521   -0.680847    0.645315
 C   -2.382251   -0.059857   -0.289885
 C    0.110077   -0.221876    0.293955
 C   -3.821154   -0.504055    0.039946
 C    0.633562    0.979198    0.829892
 C    0.901845   -0.958956   -0.618914
 C    1.925647    1.418137    0.481098
 C    2.194294   -0.519933   -0.966121
 C    2.707868    0.667591   -0.414837
 H   -1.366803   -1.776558    0.600577
 H   -1.532266   -0.422473    1.689395
 H   -2.312980    1.035216   -0.238492
 H   -2.144394   -0.318784   -1.330617
 H   -4.100641   -0.217091    1.059363
 H   -4.536556   -0.037239   -0.645343
 H   -3.931479   -1.589886   -0.051688
 H    0.039117    1.576857    1.519684
 H    0.517074   -1.876301   -1.062561
 H    2.319760    2.340174    0.904512
 H    2.796569   -1.099476   -1.663347
 H    3.706464    1.006639   -0.683647
}
set optking { 
  frozen_dihedral = ("
    4 2 1 3
    2 1 3 5
    2 1 3 6
    1 2 4 14
  ")
}
set {
  geom_maxiter 400
  g_convergence GAU_LOOSE
  dynamic_level 1
}
memory 700MB
set_num_threads(8)
psi4_io.set_default_path("/home/daniele/PSI4_sctatch/Psi4-propbenzene")
for _ in range(1):
  try:
    set opt_coordinates both
    optimize('wb97x-d/6-311G')
    break
  except OptimizationConvergenceError:
    break
  else:
    try:
      set opt_coordinates cartesian
      optimize('wb97x-d/6-311G')
      break
    except OptimizationConvergenceError:
      pass
clean()
