molecule { 
0 1
 C   -1.170073   -1.375555    0.393813
 C   -2.413649   -0.863938   -0.361944
 C    0.061523   -0.519297    0.199419
 C   -2.863154    0.542018    0.040452
 C    0.315619    0.584981    1.020352
 C    0.963000   -0.799425   -0.833176
 C    1.434335    1.389078    0.813026
 C    2.084007    0.000793   -1.044102
 C    2.322243    1.099830   -0.221452
 H   -0.956601   -2.397112    0.068936
 H   -1.406533   -1.429538    1.461737
 H   -2.200252   -0.880194   -1.435933
 H   -3.230820   -1.572438   -0.195823
 H   -2.080292    1.277829   -0.148544
 H   -3.750661    0.840743   -0.519884
 H   -3.109257    0.583544    1.105090
 H   -0.366361    0.811019    1.830598
 H    0.784798   -1.654246   -1.474460
 H    1.614142    2.237671    1.459619
 H    2.771239   -0.234985   -1.845813
 H    3.192761    1.721322   -0.381586
}
memory 700MB
set_num_threads(8)
psi4_io.set_default_path("/home/daniele/PSI4_sctatch/Psi4-propbenzene")
set freeze_core True
E, wfn = energy('wb97x-d/6-311+G*',return_wfn=True)
oeprop(wfn,"WIBERG_LOWDIN_INDICES")
clean()
