molecule { 
0 1
 C   -1.301770   -0.780833    0.462776
 C   -2.402501    0.100228   -0.152284
 C    0.103683   -0.279184    0.202519
 C   -3.807462   -0.437276    0.130084
 C    0.486732    1.013883    0.578611
 C    1.037372   -1.077179   -0.465104
 C    1.767168    1.488768    0.307754
 C    2.320224   -0.605938   -0.739788
 C    2.689633    0.679790   -0.353712
 H   -1.399957   -1.798093    0.073509
 H   -1.471564   -0.848459    1.543668
 H   -2.318088    1.118274    0.237186
 H   -2.237941    0.169317   -1.231449
 H   -3.999377   -0.483992    1.204808
 H   -4.571961    0.198575   -0.319916
 H   -3.929395   -1.445052   -0.274003
 H   -0.217509    1.651654    1.097825
 H    0.756351   -2.076563   -0.773520
 H    2.044413    2.489500    0.611451
 H    3.027324   -1.241105   -1.256574
 H    3.683964    1.048385   -0.565966
}
memory 700MB
set_num_threads(8)
psi4_io.set_default_path("/home/daniele/PSI4_sctatch/Psi4-propbenzene")
set freeze_core True
E, wfn = energy('wb97x-d/6-311+G*',return_wfn=True)
oeprop(wfn,"WIBERG_LOWDIN_INDICES")
clean()
