molecule { 
0 1
 C   -1.315341   -0.508871    0.798514
 C   -2.397765    0.126224   -0.104996
 C    0.089461   -0.154610    0.366136
 C   -3.675967   -0.712810   -0.183825
 C    0.701897    1.020931    0.812685
 C    0.784219   -0.965850   -0.536681
 C    1.973420    1.378455    0.369068
 C    2.056117   -0.612957   -0.982647
 C    2.654533    0.561987   -0.531611
 H   -1.427350   -1.597262    0.765447
 H   -1.478094   -0.214718    1.838718
 H   -2.623501    1.137345    0.244798
 H   -1.987695    0.237639   -1.112945
 H   -4.129035   -0.840296    0.802525
 H   -4.418019   -0.242821   -0.832033
 H   -3.459973   -1.705952   -0.584154
 H    0.178455    1.657546    1.515604
 H    0.325437   -1.881727   -0.889214
 H    2.431986    2.290825    0.726703
 H    2.579569   -1.254713   -1.678871
 H    3.642442    0.836504   -0.875665
}
memory 700MB
set_num_threads(8)
psi4_io.set_default_path("/home/daniele/PSI4_sctatch/Psi4-propbenzene")
set freeze_core True
E, wfn = energy('wb97x-d/6-311+G*',return_wfn=True)
oeprop(wfn,"WIBERG_LOWDIN_INDICES")
clean()
