molecule { 
0 1
 C   -1.295229   -0.288822    1.292209
 C   -2.533491    0.150108    0.484432
 C    0.010982   -0.080263    0.558719
 C   -2.710220   -0.593524   -0.841049
 C    0.675439    1.148816    0.633180
 C    0.566881   -1.088351   -0.236047
 C    1.860143    1.367278   -0.066609
 C    1.751012   -0.874733   -0.938874
 C    2.401332    0.355009   -0.856830
 H   -1.399945   -1.347531    1.550846
 H   -1.275001    0.263443    2.235464
 H   -3.420815    0.006471    1.108367
 H   -2.460318    1.225073    0.288631
 H   -2.820299   -1.668613   -0.675278
 H   -3.602787   -0.244973   -1.363766
 H   -1.853894   -0.439640   -1.499219
 H    0.261104    1.938589    1.248320
 H    0.068330   -2.047606   -0.300645
 H    2.360962    2.323534    0.007045
 H    2.166234   -1.667339   -1.547071
 H    3.321959    0.521261   -1.399547
}
memory 700MB
set_num_threads(8)
psi4_io.set_default_path("/home/daniele/PSI4_sctatch/Psi4-propbenzene")
set freeze_core True
E, wfn = energy('wb97x-d/6-311+G*',return_wfn=True)
oeprop(wfn,"WIBERG_LOWDIN_INDICES")
clean()
