molecule { 
0 1
 C   -1.267040   -1.281233    0.395258
 C   -2.439586   -0.745779   -0.474304
 C    0.035391   -0.494605    0.189041
 C   -3.274085    0.357564    0.208038
 C    0.298726    0.673045    0.944499
 C    0.979600   -0.898919   -0.785351
 C    1.482252    1.409089    0.741078
 C    2.163708   -0.163233   -0.987080
 C    2.416313    0.990375   -0.223340
 H   -1.083818   -2.332943    0.136751
 H   -1.543883   -1.302915    1.457384
 H   -2.059401   -0.402801   -1.445834
 H   -3.104007   -1.587459   -0.714062
 H   -2.656367    1.228622    0.450487
 H   -4.082209    0.694934   -0.449327
 H   -3.728570   -0.005670    1.135949
 H   -0.413986    1.013373    1.694406
 H    0.798647   -1.785616   -1.391435
 H    1.674664    2.303386    1.331158
 H    2.884358   -0.487162   -1.735853
 H    3.331523    1.558428   -0.379180
}
set optking { 
  frozen_dihedral = ("
    4 2 1 3
    2 1 3 5
    2 1 3 6
    1 2 4 14
  ")
}
set {
  geom_maxiter 400
  g_convergence GAU_LOOSE
  dynamic_level 1
}
memory 700MB
set_num_threads(8)
psi4_io.set_default_path("/home/daniele/PSI4_sctatch/Psi4-propbenzene")
for _ in range(1):
  try:
    set opt_coordinates both
    optimize('wb97x-d/6-311G')
    break
  except OptimizationConvergenceError:
    break
  else:
    try:
      set opt_coordinates cartesian
      optimize('wb97x-d/6-311G')
      break
    except OptimizationConvergenceError:
      pass
clean()
