molecule { 
0 1
 C   -1.287271   -0.233917    1.377386
 C   -2.578597    0.059943    0.564058
 C   -0.002905   -0.079384    0.596061
 C   -2.495583   -0.254449   -0.932155
 C    0.627909    1.166088    0.501225
 C    0.569435   -1.165359   -0.074143
 C    1.788782    1.326870   -0.251917
 C    1.731101   -1.010849   -0.827237
 C    2.344070    0.237272   -0.920322
 H   -1.335747   -1.262721    1.747175
 H   -1.266415    0.408589    2.260283
 H   -3.409255   -0.486285    1.018000
 H   -2.818913    1.122926    0.669724
 H   -2.279843   -1.310614   -1.111907
 H   -3.443165   -0.020762   -1.421309
 H   -1.710529    0.327875   -1.415106
 H    0.200955    2.015820    1.020364
 H    0.099054   -2.138527   -0.004180
 H    2.260656    2.298545   -0.313630
 H    2.158143   -1.863606   -1.338106
 H    3.246701    0.358497   -1.503706
}
memory 700MB
set_num_threads(8)
psi4_io.set_default_path("/home/daniele/PSI4_sctatch/Psi4-propbenzene")
set freeze_core True
E, wfn = energy('wb97x-d/6-311+G*',return_wfn=True)
oeprop(wfn,"WIBERG_LOWDIN_INDICES")
clean()
