molecule { 
0 1
 C   -1.332208   -0.311014    1.136459
 C   -2.485225    0.276539    0.289097
 C    0.026284   -0.090561    0.508948
 C   -3.042771   -0.717833   -0.732529
 C    0.735450    1.091645    0.748805
 C    0.585659   -1.036916   -0.356396
 C    1.965642    1.325038    0.138714
 C    1.815505   -0.807065   -0.970647
 C    2.509000    0.376252   -0.725836
 H   -1.505152   -1.379412    1.292679
 H   -1.338820    0.153921    2.126110
 H   -3.295751    0.584032    0.957009
 H   -2.136270    1.181443   -0.215093
 H   -3.436884   -1.604779   -0.230885
 H   -3.849450   -0.273666   -1.318355
 H   -2.265618   -1.042950   -1.428691
 H    0.320089    1.832515    1.421330
 H    0.055574   -1.962597   -0.543642
 H    2.500117    2.244113    0.339505
 H    2.231989   -1.551336   -1.636337
 H    3.464572    0.555575   -1.199579
}
memory 700MB
set_num_threads(8)
psi4_io.set_default_path("/home/daniele/PSI4_sctatch/Psi4-propbenzene")
set freeze_core True
E, wfn = energy('wb97x-d/6-311+G*',return_wfn=True)
oeprop(wfn,"WIBERG_LOWDIN_INDICES")
clean()
