molecule { 
0 1
 C   -1.298374   -0.677847    0.636630
 C   -2.360827   -0.058474   -0.288737
 C    0.102017   -0.224306    0.291884
 C   -3.780691   -0.514288    0.055134
 C    0.618721    0.961873    0.823297
 C    0.890530   -0.951041   -0.605710
 C    1.888422    1.411360    0.467950
 C    2.160923   -0.505356   -0.964756
 C    2.663666    0.678653   -0.429018
 H   -1.360548   -1.768437    0.572787
 H   -1.529009   -0.411701    1.672880
 H   -2.293145    1.031855   -0.226744
 H   -2.124271   -0.322162   -1.324011
 H   -4.045420   -0.230878    1.076716
 H   -4.514318   -0.066753   -0.617802
 H   -3.872079   -1.600331   -0.023200
 H    0.022070    1.533817    1.523772
 H    0.506209   -1.873684   -1.023575
 H    2.272649    2.329487    0.892192
 H    2.757274   -1.081938   -1.659376
 H    3.650335    1.025076   -0.704969
}
memory 700MB
set_num_threads(8)
psi4_io.set_default_path("/home/daniele/PSI4_sctatch/Psi4-propbenzene")
set freeze_core True
E, wfn = energy('wb97x-d/6-311+G*',return_wfn=True)
oeprop(wfn,"WIBERG_LOWDIN_INDICES")
clean()
