molecule { 
0 1
 C   -1.357429   -0.385438    0.999181
 C   -2.491562    0.229468    0.122244
 C    0.046112   -0.095719    0.450419
 C   -3.476337   -0.810323   -0.449796
 C    0.722696    1.099184    0.793136
 C    0.668243   -0.993505   -0.449457
 C    2.000131    1.376722    0.268974
 C    1.945191   -0.714878   -0.974304
 C    2.613186    0.468813   -0.612946
 H   -1.492564   -1.469403    1.109116
 H   -1.434918    0.002357    2.023777
 H   -3.042097    0.967962    0.720480
 H   -2.053886    0.812280   -0.699579
 H   -3.978924   -1.362259    0.351786
 H   -4.248405   -0.321545   -1.053467
 H   -2.959527   -1.532329   -1.091249
 H    0.259609    1.817486    1.468092
 H    0.162758   -1.911449   -0.745666
 H    2.513463    2.295839    0.545718
 H    2.415829   -1.415986   -1.661207
 H    3.600665    0.683200   -1.016969
}
set optking { 
  frozen_dihedral = ("
    4 2 1 3
    2 1 3 5
    2 1 3 6
    1 2 4 14
  ")
}
set {
  geom_maxiter 400
  g_convergence GAU_LOOSE
  dynamic_level 1
}
memory 700MB
set_num_threads(8)
psi4_io.set_default_path("/home/daniele/PSI4_sctatch/Psi4-propbenzene")
for _ in range(1):
  try:
    set opt_coordinates both
    optimize('wb97x-d/6-311G')
    break
  except OptimizationConvergenceError:
    break
  else:
    try:
      set opt_coordinates cartesian
      optimize('wb97x-d/6-311G')
      break
    except OptimizationConvergenceError:
      pass
clean()
