molecule { 
0 1
 C   -1.464350    0.060611    0.535768
 C   -2.288938   -0.859853   -0.373003
 C    0.018644    0.163416    0.224283
 C   -3.766420   -0.890552    0.027262
 C    0.913175    0.491238    1.250067
 C    0.532059   -0.004923   -1.065642
 C    2.274509    0.640071    1.001373
 C    1.895102    0.141032   -1.319080
 C    2.772028    0.464765   -0.287991
 H   -1.581270   -0.274030    1.571178
 H   -1.900251    1.066249    0.495566
 H   -2.216823   -0.522277   -1.409926
 H   -1.867839   -1.868827   -0.342314
 H   -4.207623    0.106893   -0.036309
 H   -4.339369   -1.552592   -0.624277
 H   -3.887531   -1.244150    1.053865
 H    0.535991    0.626080    2.256484
 H   -0.127133   -0.256658   -1.884083
 H    2.945490    0.889815    1.812393
 H    2.269912    0.001665   -2.324294
 H    3.829274    0.577363   -0.485380
}
memory 700MB
set_num_threads(8)
psi4_io.set_default_path("/home/daniele/PSI4_sctatch/Psi4-propbenzene")
set freeze_core True
E, wfn = energy('wb97x-d/6-311+G*',return_wfn=True)
oeprop(wfn,"WIBERG_LOWDIN_INDICES")
clean()
