molecule { 
0 1
 C   -1.376025   -0.705886   -0.321236
 C   -2.337227    0.019794    0.636208
 C    0.056989   -0.228562   -0.217928
 C   -3.778316   -0.480710    0.513056
 C    0.394760    1.088169   -0.552759
 C    1.082434   -1.099417    0.161073
 C    1.713420    1.528996   -0.482247
 C    2.404416   -0.662695    0.234349
 C    2.723839    0.654481   -0.084932
 H   -1.731267   -0.568445   -1.348537
 H   -1.416825   -1.780382   -0.121366
 H   -1.981945   -0.114234    1.662031
 H   -2.304403    1.094948    0.437832
 H   -3.843107   -1.546584    0.744405
 H   -4.441802    0.050866    1.197551
 H   -4.156871   -0.336281   -0.501807
 H   -0.380312    1.772429   -0.875545
 H    0.842530   -2.126708    0.406082
 H    1.953485    2.551253   -0.742930
 H    3.182520   -1.351344    0.535774
 H    3.748901    0.995080   -0.031141
}
memory 700MB
set_num_threads(8)
psi4_io.set_default_path("/home/daniele/PSI4_sctatch/Psi4-propbenzene")
set freeze_core True
E, wfn = energy('wb97x-d/6-311+G*',return_wfn=True)
oeprop(wfn,"WIBERG_LOWDIN_INDICES")
clean()
