molecule { 
0 1
 C   -1.249847   -1.499766    0.398197
 C   -2.584038   -0.969029   -0.214878
 C   -0.031895   -0.576105    0.231192
 C   -2.759710    0.565749   -0.239773
 C    0.245869    0.440981    1.176588
 C    0.822075   -0.711542   -0.889109
 C    1.354585    1.293117    1.010084
 C    1.931809    0.140143   -1.053820
 C    2.199335    1.142276   -0.103989
 H   -1.027846   -2.496968   -0.004304
 H   -1.403732   -1.670328    1.472406
 H   -2.649684   -1.338168   -1.247568
 H   -3.429625   -1.441347    0.302777
 H   -1.975325    1.052546   -0.828781
 H   -3.722486    0.837159   -0.685544
 H   -2.734477    0.982026    0.772612
 H   -0.398577    0.574687    2.044286
 H    0.627500   -1.478593   -1.637415
 H    1.558037    2.070180    1.744623
 H    2.583350    0.023165   -1.917877
 H    3.056912    1.800297   -0.231424
}
set optking { 
  frozen_dihedral = ("
    4 2 1 3
    2 1 3 5
    2 1 3 6
    1 2 4 14
  ")
}
set {
  geom_maxiter 400
  g_convergence GAU_LOOSE
  dynamic_level 1
}
memory 700MB
set_num_threads(8)
psi4_io.set_default_path("/home/daniele/PSI4_sctatch/Psi4-propbenzene")
for _ in range(1):
  try:
    set opt_coordinates both
    optimize('wb97x-d/6-311G')
    break
  except OptimizationConvergenceError:
    break
  else:
    try:
      set opt_coordinates cartesian
      optimize('wb97x-d/6-311G')
      break
    except OptimizationConvergenceError:
      pass
clean()
