molecule { 
0 1
 C   -1.272075   -1.087745    0.429926
 C   -2.398627   -0.531887   -0.495078
 C    0.083432   -0.407643    0.196286
 C   -3.588538    0.086931    0.266126
 C    0.415032    0.788560    0.876009
 C    1.008011   -0.938177   -0.734626
 C    1.648987    1.427008    0.645437
 C    2.242200   -0.299595   -0.964029
 C    2.564348    0.882129   -0.272843
 H   -1.170944   -2.170168    0.274697
 H   -1.551437   -0.990475    1.487203
 H   -1.980168    0.209799   -1.188808
 H   -2.757622   -1.342211   -1.143674
 H   -3.264408    0.928452    0.887820
 H   -4.344403    0.460409   -0.432994
 H   -4.070277   -0.652343    0.915092
 H   -0.284716    1.227759    1.585688
 H    0.772697   -1.848395   -1.284442
 H    1.894532    2.343923    1.178079
 H    2.947717   -0.720707   -1.677903
 H    3.518488    1.374857   -0.449681
}
set optking { 
  frozen_dihedral = ("
    4 2 1 3
    2 1 3 5
    2 1 3 6
    1 2 4 14
  ")
}
set {
  geom_maxiter 400
  g_convergence GAU_LOOSE
  dynamic_level 1
}
memory 700MB
set_num_threads(8)
psi4_io.set_default_path("/home/daniele/PSI4_sctatch/Psi4-propbenzene")
for _ in range(1):
  try:
    set opt_coordinates both
    optimize('wb97x-d/6-311G')
    break
  except OptimizationConvergenceError:
    break
  else:
    try:
      set opt_coordinates cartesian
      optimize('wb97x-d/6-311G')
      break
    except OptimizationConvergenceError:
      pass
clean()
