molecule { 
0 1
 C   -1.249147   -1.052968    0.416361
 C   -2.353574   -0.499992   -0.528057
 C    0.095135   -0.392612    0.206665
 C   -3.531700    0.118953    0.229640
 C    0.420080    0.792187    0.876342
 C    1.024958   -0.925301   -0.692005
 C    1.637277    1.431139    0.650305
 C    2.243959   -0.290114   -0.920821
 C    2.553380    0.892004   -0.251043
 H   -1.145300   -2.131940    0.279780
 H   -1.560275   -0.906043    1.454665
 H   -1.915984    0.251487   -1.189507
 H   -2.720611   -1.300351   -1.176123
 H   -3.196671    0.954590    0.849139
 H   -4.292446    0.495463   -0.456936
 H   -4.004257   -0.615860    0.885626
 H   -0.285177    1.213185    1.582584
 H    0.791942   -1.845470   -1.213717
 H    1.871552    2.345619    1.178969
 H    2.951303   -0.718741   -1.618396
 H    3.499817    1.385335   -0.425906
}
memory 700MB
set_num_threads(8)
psi4_io.set_default_path("/home/daniele/PSI4_sctatch/Psi4-propbenzene")
set freeze_core True
E, wfn = energy('wb97x-d/6-311+G*',return_wfn=True)
oeprop(wfn,"WIBERG_LOWDIN_INDICES")
clean()
