molecule { 
0 1
 N    0.904400    0.008800    0.092500
 H    0.592800    0.905700   -0.277200
 H    0.592800   -0.694200   -0.576100
 H    1.921700    0.019500    0.035200
}
memory 700MB
set_num_threads(1)
psi4_io.set_default_path("/scratch/bdw2292")
optimize('mp2/6-31G*')
clean()
