molecule { 
0 1
N           -0.022967689517    -0.011930090337     0.063857632847
H           -0.336675337392     0.884093204260    -0.300264078375
H           -0.336661847712    -0.716065413442    -0.599196935949
H            0.992458308051    -0.002266936967     0.012200696405
}
memory 700MB
set_num_threads(1)
psi4_io.set_default_path("/scratch/bdw2292")
set freeze_core True
E, wfn = energy('mp2/6-311++G(2d,2p)',return_wfn=True)
oeprop(wfn,"DIPOLE","GRID_ESP")
clean()
