molecule { 
0 1
O            0.696446585262     0.040745448724     0.013948831755
C           -0.732830942368     0.010016229128     0.003248984518
H           -1.129447483355    -0.748003894317     0.686523598049
H           -1.129102562542    -0.176196635248    -1.000274768364
H           -1.067929757844     0.992188032413     0.336122956058
H            0.999059582043    -0.833908866500    -0.282434970113
}
set {
 basis 6-311++G(2d,2p)
 e_convergence 10 
 d_convergence 10 
 scf_type pk
 pcm true
  pcm_scf_type total 
}
pcm = {
 Units = Angstrom
 Medium {
 SolverType = IEFPCM
 Solvent = Water
 }
 Cavity {
 RadiiSet = UFF
 Type = GePol
 Scaling = False
 Area = 0.3
 Mode = Implicit
 }
}
memory 700MB
set_num_threads(1)
psi4_io.set_default_path("/scratch/bdw2292")
set freeze_core True
E, wfn = energy('mp2/6-311++G(2d,2p)',return_wfn=True)
oeprop(wfn,"DIPOLE","GRID_ESP")
clean()
