molecule { 
0 1
 O    0.707900    0.000000    0.000000
 C   -0.707900    0.000000    0.000000
 H   -1.073200   -0.769000    0.685200
 H   -1.073100   -0.194700   -1.011300
 H   -1.063200    0.978600    0.331200
 H    0.993600   -0.880400   -0.298000
}
set {
 basis 6-31G*
 e_convergence 10 
 d_convergence 10 
 scf_type pk
 pcm true
  pcm_scf_type total 
}
pcm = {
 Units = Angstrom
 Medium {
 SolverType = IEFPCM
 Solvent = Water
 }
 Cavity {
 RadiiSet = UFF
 Type = GePol
 Scaling = False
 Area = 0.3
 Mode = Implicit
 }
}
memory 700MB
set_num_threads(1)
psi4_io.set_default_path("/scratch/bdw2292")
optimize('mp2/6-31G*')
clean()
