molecule { 
0 1
 C   -0.441096   -0.575313    0.244224
 C    0.441094    0.575336   -0.244175
 C   -1.925694   -0.354729   -0.038847
 C    1.925695    0.354710    0.038805
 H   -0.289698   -0.712857    1.323326
 H   -0.111708   -1.509081   -0.231026
 H    0.111683    1.509113    0.231062
 H    0.289706    0.712868   -1.323273
 H   -2.109540   -0.249010   -1.114080
 H   -2.287932    0.557013    0.449663
 H   -2.531576   -1.191763    0.323487
 H    2.289060   -0.554372   -0.453781
 H    2.108930    0.244033    1.113657
 H    2.531088    1.193995   -0.319113
}
memory 700MB
set_num_threads(8)
psi4_io.set_default_path("/home/daniele/PSI4_sctatch/Psi4-butane")
set freeze_core True
E, wfn = energy('wb97x-d/6-311+G*',return_wfn=True)
oeprop(wfn,"WIBERG_LOWDIN_INDICES")
clean()
