molecule { 
0 1
 C   -0.508733   -0.760757   -0.370055
 C    0.634702    0.196879   -0.729999
 C   -1.562684   -0.168344    0.564735
 C    1.444682    0.696567    0.465756
 H   -0.084290   -1.661233    0.094677
 H   -0.994700   -1.095520   -1.294746
 H    0.218431    1.060833   -1.265992
 H    1.307461   -0.304552   -1.436573
 H   -2.034699    0.713976    0.116921
 H   -1.136130    0.128339    1.527763
 H   -2.354807   -0.896220    0.768199
 H    1.905978   -0.138761    1.005439
 H    0.826781    1.256852    1.174045
 H    2.251124    1.360828    0.138547
}
memory 700MB
set_num_threads(8)
psi4_io.set_default_path("/home/daniele/PSI4_sctatch/Psi4-butane")
set freeze_core True
E, wfn = energy('wb97x-d/6-311+G*',return_wfn=True)
oeprop(wfn,"WIBERG_LOWDIN_INDICES")
clean()
