molecule { 
0 1
 C   -0.470568   -0.488187    0.407150
 C    0.432679    0.657611   -0.076515
 C   -1.878333   -0.439296   -0.183715
 C    1.913114    0.283778   -0.119784
 H   -0.518637   -0.491903    1.502986
 H   -0.011868   -1.445348    0.123823
 H    0.283224    1.544606    0.551245
 H    0.122434    0.950844   -1.088741
 H   -1.840971   -0.503199   -1.276780
 H   -2.385603    0.497775    0.073500
 H   -2.497210   -1.264944    0.182848
 H    2.078730   -0.560438   -0.798123
 H    2.277550   -0.013853    0.870260
 H    2.529367    1.120879   -0.464115
}
memory 700MB
set_num_threads(8)
psi4_io.set_default_path("/home/daniele/PSI4_sctatch/Psi4-butane")
set freeze_core True
E, wfn = energy('wb97x-d/6-311+G*',return_wfn=True)
oeprop(wfn,"WIBERG_LOWDIN_INDICES")
clean()
