molecule { 
0 1
 C   -0.636451   -0.195278    0.728885
 C    0.510357    0.759137    0.371110
 C   -1.446673   -0.692876   -0.467549
 C    1.564707    0.165065   -0.562123
 H   -1.308338    0.307710    1.435146
 H   -0.223002   -1.060456    1.265147
 H    0.995162    1.092728    1.296808
 H    0.088736    1.660762   -0.094035
 H   -0.824271   -1.240290   -1.182026
 H   -1.901908    0.146112   -1.007014
 H   -2.252741   -1.360590   -0.147534
 H    1.133885   -0.144667   -1.519193
 H    2.030397   -0.719749   -0.112236
 H    2.358046    0.889218   -0.772396
}
memory 700MB
set_num_threads(8)
psi4_io.set_default_path("/home/daniele/PSI4_sctatch/Psi4-butane")
set freeze_core True
E, wfn = energy('wb97x-d/6-311+G*',return_wfn=True)
oeprop(wfn,"WIBERG_LOWDIN_INDICES")
clean()
