molecule { 
0 1
 C   -0.793834   -0.145502    0.671908
 C    0.533378    0.665701    0.612784
 C   -1.127993   -1.008510   -0.547396
 C    1.372611    0.519896   -0.659148
 H   -1.628026    0.544963    0.835870
 H   -0.776104   -0.796169    1.552866
 H    1.161059    0.390244    1.466975
 H    0.307589    1.729080    0.746876
 H   -0.359447   -1.763757   -0.734709
 H   -1.234162   -0.409189   -1.456060
 H   -2.073635   -1.534962   -0.386934
 H    0.823829    0.838332   -1.550089
 H    1.695237   -0.512988   -0.817850
 H    2.272229    1.138364   -0.587438
}
memory 700MB
set_num_threads(8)
psi4_io.set_default_path("/home/daniele/PSI4_sctatch/Psi4-butane")
set freeze_core True
E, wfn = energy('wb97x-d/6-311+G*',return_wfn=True)
oeprop(wfn,"WIBERG_LOWDIN_INDICES")
clean()
