molecule { 
0 1
 C   -0.432101   -0.657944    0.076734
 C    0.469957    0.488668   -0.407246
 C   -1.912919   -0.285634    0.120766
 C    1.878158    0.441070    0.182718
 H   -0.121025   -0.950959    1.088793
 H   -0.282210   -1.544774   -0.551170
 H    0.010488    1.445378   -0.123549
 H    0.517482    0.492580   -1.503114
 H   -2.281102    0.003878   -0.870292
 H   -2.079706    0.559887    0.797110
 H   -2.526023   -1.122911    0.470589
 H    2.389990   -0.491595   -0.081359
 H    1.842293    0.502207    1.275944
 H    2.492960    1.271095   -0.181127
}
memory 700MB
set_num_threads(8)
psi4_io.set_default_path("/home/daniele/PSI4_sctatch/Psi4-butane")
set freeze_core True
E, wfn = energy('wb97x-d/6-311+G*',return_wfn=True)
oeprop(wfn,"WIBERG_LOWDIN_INDICES")
clean()
