molecule { 
0 1
 C   -0.517401   -0.394478    0.553526
 C    0.443673    0.724383    0.090308
 C   -1.766413   -0.519065   -0.318371
 C    1.835005    0.212158   -0.280599
 H   -0.820824   -0.226344    1.593390
 H    0.013291   -1.355296    0.550389
 H    0.538687    1.488732    0.870303
 H    0.012847    1.238337   -0.778629
 H   -1.497154   -0.743789   -1.356848
 H   -2.340098    0.414499   -0.319319
 H   -2.426731   -1.317780    0.036130
 H    1.778358   -0.514908   -1.098892
 H    2.311259   -0.284834    0.571952
 H    2.491522    1.027561   -0.602680
}
memory 700MB
set_num_threads(8)
psi4_io.set_default_path("/home/daniele/PSI4_sctatch/Psi4-butane")
set freeze_core True
E, wfn = energy('wb97x-d/6-311+G*',return_wfn=True)
oeprop(wfn,"WIBERG_LOWDIN_INDICES")
clean()
