molecule { 
0 1
 C   -0.745631   -0.047638    0.714324
 C    0.606374    0.670742    0.500910
 C   -1.363471   -0.684414   -0.531423
 C    1.493887    0.100877   -0.606644
 H   -1.456541    0.651497    1.166064
 H   -0.602472   -0.846560    1.452952
 H    1.157141    0.688243    1.446743
 H    0.407046    1.720856    0.252168
 H   -0.706728   -1.443407   -0.963453
 H   -1.561336    0.060843   -1.310113
 H   -2.315494   -1.164517   -0.286837
 H    0.998032    0.139132   -1.579625
 H    1.759139   -0.944766   -0.413805
 H    2.426474    0.667568   -0.682915
}
memory 700MB
set_num_threads(8)
psi4_io.set_default_path("/home/daniele/PSI4_sctatch/Psi4-butane")
set freeze_core True
E, wfn = energy('wb97x-d/6-311+G*',return_wfn=True)
oeprop(wfn,"WIBERG_LOWDIN_INDICES")
clean()
