molecule { 
0 1
 C   -0.569822   -0.294505    0.667096
 C    0.465377    0.761720    0.244263
 C   -1.599875   -0.599150   -0.420251
 C    1.697609    0.161971   -0.432526
 H   -1.104859    0.056233    1.558271
 H   -0.053853   -1.216110    0.964947
 H    0.797003    1.320873    1.127917
 H   -0.008610    1.495482   -0.419985
 H   -1.121764   -0.979867   -1.330307
 H   -2.157490    0.304403   -0.689830
 H   -2.321112   -1.353162   -0.088130
 H    1.427849   -0.389717   -1.340605
 H    2.209098   -0.534436    0.240832
 H    2.413666    0.938679   -0.720633
}
memory 700MB
set_num_threads(8)
psi4_io.set_default_path("/home/daniele/PSI4_sctatch/Psi4-butane")
set freeze_core True
E, wfn = energy('wb97x-d/6-311+G*',return_wfn=True)
oeprop(wfn,"WIBERG_LOWDIN_INDICES")
clean()
