molecule { 
0 1
 C   -0.462201   -0.764145   -0.242924
 C    0.566634    0.296910   -0.668826
 C   -1.695443   -0.169902    0.436895
 C    1.597754    0.606973    0.415990
 H    0.017082   -1.495518    0.420193
 H   -0.793389   -1.325050   -1.125596
 H    0.045444    1.215813   -0.966014
 H    1.101133   -0.051784   -1.561090
 H   -2.211071    0.523781   -0.236267
 H   -1.423873    0.389636    1.339698
 H   -2.406774   -0.948294    0.731392
 H    2.159656   -0.294534    0.683883
 H    1.118173    0.978323    1.329218
 H    2.313327    1.366796    0.085482
}
memory 700MB
set_num_threads(8)
psi4_io.set_default_path("/home/daniele/PSI4_sctatch/Psi4-butane")
set freeze_core True
E, wfn = energy('wb97x-d/6-311+G*',return_wfn=True)
oeprop(wfn,"WIBERG_LOWDIN_INDICES")
clean()
