molecule { 
0 1
 C   -0.439987   -0.726869   -0.088853
 C    0.513769    0.396796   -0.555339
 C   -1.832831   -0.221466    0.285748
 C    1.764200    0.528495    0.313467
 H   -0.003885   -1.238158    0.779070
 H   -0.533197   -1.492072   -0.868213
 H   -0.022167    1.354737   -0.551560
 H    0.815417    0.229540   -1.595850
 H   -2.315566    0.268256   -0.567473
 H   -1.776119    0.512700    1.097745
 H   -2.483020   -1.038261    0.616608
 H    2.345035   -0.400731    0.309301
 H    1.495305    0.743814    1.354088
 H    2.416861    1.334557   -0.038195
}
memory 700MB
set_num_threads(8)
psi4_io.set_default_path("/home/daniele/PSI4_sctatch/Psi4-butane")
set freeze_core True
E, wfn = energy('wb97x-d/6-311+G*',return_wfn=True)
oeprop(wfn,"WIBERG_LOWDIN_INDICES")
clean()
