molecule { 
0 1
 C   -0.535533   -0.378665    0.571968
 C    0.456648    0.731551    0.116750
 C   -1.801449   -0.523832   -0.279623
 C    1.862826    0.249348   -0.256153
 H   -0.839707   -0.176871    1.625162
 H   -0.015480   -1.363444    0.603211
 H    0.546874    1.486882    0.931484
 H    0.032316    1.288163   -0.750032
 H   -1.549393   -0.768078   -1.336130
 H   -2.399371    0.415379   -0.275022
 H   -2.449804   -1.340084    0.111432
 H    1.828051   -0.479089   -1.097264
 H    2.361279   -0.244339    0.608465
 H    2.502622    1.103352   -0.573640
}
set optking { 
  frozen_dihedral = ("
    3 1 2 4
    2 1 3 9
    1 2 4 12
  ")
}
set {
  geom_maxiter 5
  g_convergence GAU_LOOSE
  dynamic_level 1
}
memory 700MB
set_num_threads(8)
psi4_io.set_default_path("/home/daniele/PSI4_sctatch/Psi4-butane")
for _ in range(1):
  try:
    set opt_coordinates both
    optimize('wb97x-d/6-31G*')
    break
  except OptimizationConvergenceError:
    break
  else:
    try:
      set opt_coordinates cartesian
      optimize('wb97x-d/6-31G*')
      break
    except OptimizationConvergenceError:
      pass
clean()
