molecule { 
0 1
 C   -0.162101   -0.948228   -0.376630
 C    0.379332    0.409302   -0.869441
 C   -0.938043   -0.907781    0.939717
 C    0.734549    1.412644    0.227590
 H    0.683218   -1.636474   -0.240112
 H   -0.784276   -1.393853   -1.161313
 H   -0.377679    0.878310   -1.512765
 H    1.250384    0.237448   -1.512205
 H   -1.816788   -0.254564    0.873424
 H   -0.313878   -0.547090    1.763129
 H   -1.292812   -1.909489    1.204842
 H    1.507171    1.021735    0.901050
 H   -0.139058    1.670943    0.834040
 H    1.120158    2.338612   -0.212271
}
memory 700MB
set_num_threads(8)
psi4_io.set_default_path("/home/daniele/PSI4_sctatch/Psi4-butane")
set freeze_core True
E, wfn = energy('wb97x-d/6-311+G*',return_wfn=True)
oeprop(wfn,"WIBERG_LOWDIN_INDICES")
clean()
