molecule { 
0 1
N          0.75110        0.00000       -0.12581
C         -0.70636        0.00000        0.01757
H         -1.07868       -0.00004        1.05311
H         -1.11071       -0.88099       -0.48621
H         -1.11070        0.88102       -0.48614
H          1.14028       -0.81260        0.34726
H          1.14028        0.81260        0.34726
}
memory 5GB
set_num_threads(4)
psi4_io.set_default_path("/scratch/bdw2292")
set freeze_core True
E, wfn = energy('mp2/6-311G**',return_wfn=True)
gdma(wfn)
fchk(wfn, "methylamine-dma.fchk")
clean()
