molecule { 
0 1
  N                  3.0895240     1.8402770    -1.3306660
  C                  1.7426930     1.5771090    -1.0570750
  C                  1.2802440     0.2555280    -1.2095530
  C                  1.0948130     2.3703140    -0.0903970
  C                  0.0609020    -0.1650430    -0.6395770
  C                 -0.1265590     1.9685150     0.4890010
  C                 -0.6624690     0.7040200     0.1938250
  H                  1.8479350    -0.4556110    -1.7954130
  H                  1.5164010     3.3224880     0.2044210
  H                 -0.3143900    -1.1821210    -0.8407630
  H                 -0.6510420     2.6453310     1.1836130
  H                 -1.6167990     0.3827750     0.6433610
  H                  3.5726000     2.5492910    -0.7659180
  H                  3.7061070     1.0467390    -1.5443670
--
0 1
  O                  3.2865672     0.0389922     2.0999624
  H                  2.6967482    -0.3796958     2.7265674
  H                  4.1476612     0.1255132     2.5077984
}
memory 700MB
set_num_threads(8)
psi4_io.set_default_path("/home/daniele/PSI4_sctatch/Psi4-aniline")
set maxiter 500
set freeze_core True
set PROPERTIES_ORIGIN ["COM"]
e_dim= energy('wb97x-d/aug-cc-pVDZ',bsse_type='cp')

psi4.print_out('CP Energy = %10.6f' % (e_dim))
clean()
