molecule { 
0 1
  N                  2.7466090     1.0530820     1.7701760
  C                  1.4866550     0.8288760     1.2070090
  C                  1.3045810    -0.3430300     0.4489450
  C                  0.7231520     1.9510650     0.8343920
  C                  0.2190350    -0.4805680    -0.4405410
  C                 -0.3687780     1.8351680    -0.0503730
  C                 -0.6402600     0.6058840    -0.6730140
  H                  1.9887570    -1.1746620     0.5573080
  H                  0.9491110     2.9259740     1.2464930
  H                  0.0569860    -1.4378960    -0.9626570
  H                 -0.9976590     2.7156020    -0.2619850
  H                 -1.4891120     0.5076770    -1.3697260
  H                  3.0949380     2.0143920     1.8725060
  H                  3.5063160     0.3819680     1.6024310
--
0 1
  O                  3.6336669     1.8908533    -2.0258429
  H                  3.0128399     1.6435533    -1.3400189
  H                  4.5143129     1.8744023    -1.6522839
}
memory 700MB
set_num_threads(8)
psi4_io.set_default_path("/home/daniele/PSI4_sctatch/Psi4-aniline")
set maxiter 500
set freeze_core True
set PROPERTIES_ORIGIN ["COM"]
e_dim= energy('wb97x-d/aug-cc-pVDZ',bsse_type='cp')

psi4.print_out('CP Energy = %10.6f' % (e_dim))
clean()
