molecule { 
0 1
C 0.735094392323 0.048975358468 -0.025943690524
C -0.735032975173 -0.050082502964 0.028219525646
C 1.355066139905 1.075598389761 -0.752865080535
C -1.389955100793 -0.306942410704 1.241269817311
C 1.539572988733 -0.882445007665 0.645911349674
C -1.504580318863 0.113187542113 -1.132643414471
C 2.744487422104 1.166924552388 -0.806926609084
C -2.779423171373 -0.401848331930 1.290941620019
C 2.928992771170 -0.787250413848 0.595175212230
C -2.894248540924 0.022960630425 -1.081130369530
C 3.536528914712 0.237146035560 -0.131872740339
C -3.536392343513 -0.236539375155 0.130424164730
H 0.739851980834 1.819575591628 -1.254983038226
H -0.805267327353 -0.404087822605 2.153145033402
H 1.070087464849 -1.701065460252 1.186804807639
H -1.005322998136 0.285495284577 -2.083687798109
H 3.209408893681 1.972412587406 -1.370218960355
H -3.272699762567 -0.595396732996 2.240188518460
H 3.538912137899 -1.521025250975 1.116605169723
H -3.476139676652 0.146081975260 -1.991168723186
H 4.620129629686 0.310137131207 -0.173279336690
H -4.620272216464 -0.308370299295 0.169929061740
}
memory 700MB
set_num_threads(3)
psi4_io.set_default_path("/home/daniele/PSI4_sctatch/Psi4-biphenyl")
set freeze_core True
set PROPERTIES_ORIGIN ["COM"]
set cubeprop_tasks ['esp']
E, wfn = energy('mp2/6-311G**',properties=['dipole'],return_wfn=True)
cubeprop(wfn)
fchk(wfn, "biphenyl-dma.fchk")
clean()
