molecule { 
0 1
 O   -2.406111    0.313592   -0.336482
 C    0.058919    0.236571   -0.219991
 C    1.274646   -0.414716    0.444908
 C   -1.265547   -0.303565    0.304364
 C    2.601352    0.135755   -0.083606
 H    0.077326    1.318873   -0.068229
 H    0.108600    0.067247   -1.303550
 H    1.238844   -1.497471    0.285610
 H    1.220905   -0.260216    1.527599
 H   -1.298851   -1.393183    0.181487
 H   -1.379844   -0.079128    1.363222
 H    2.692566   -0.033278   -1.159190
 H    3.452328   -0.341281    0.405265
 H    2.671997    1.211605    0.091249
 H   -2.380874    0.149132   -1.289832
}
memory 700MB
set_num_threads(8)
psi4_io.set_default_path("/home/daniele/PSI4_sctatch/Psi4-1butanol_3D")
set freeze_core True
E, wfn = energy('wb97x-d/6-311+G*',return_wfn=True)
oeprop(wfn,"WIBERG_LOWDIN_INDICES")
clean()
