molecule { 
0 1
 O   -2.237627    0.416319   -0.462212
 C    0.043071   -0.326933   -0.598833
 C    1.342250   -0.783357    0.119711
 C   -1.125239    0.028534    0.347249
 C    2.307437    0.368674    0.465460
 H    0.243919    0.521699   -1.265508
 H   -0.306241   -1.140322   -1.249343
 H    1.877456   -1.483196   -0.536487
 H    1.101043   -1.359035    1.022702
 H   -1.380806   -0.833461    0.976466
 H   -0.830777    0.842249    1.021726
 H    2.627641    0.902282   -0.436005
 H    3.205388   -0.014294    0.962013
 H    1.835996    1.091648    1.139644
 H   -2.978437    0.648102    0.128838
}
set optking { 
  frozen_dihedral = ("
    4 2 3 5
    2 4 1 15
    3 2 4 1
    12 5 3 2
  ")
}
set {
  geom_maxiter 400
  g_convergence GAU_LOOSE
  dynamic_level 1
}
memory 700MB
set_num_threads(8)
psi4_io.set_default_path("/home/daniele/PSI4_sctatch/Psi4-1butanol_3D")
for _ in range(1):
  try:
    set opt_coordinates both
    optimize('wb97x-d/6-311G')
    break
  except OptimizationConvergenceError:
    break
  else:
    try:
      set opt_coordinates cartesian
      optimize('wb97x-d/6-311G')
      break
    except OptimizationConvergenceError:
      pass
clean()
