molecule { 
0 1
 O   -1.619471   -1.017857    0.087844
 C   -0.028426    0.847765    0.015326
 C    0.971071   -0.312006   -0.069317
 C   -1.510684    0.426144    0.104936
 C    2.414243    0.192975   -0.151009
 H    0.228600    1.459902    0.884939
 H    0.114792    1.489448   -0.859113
 H    0.740094   -0.929264   -0.938103
 H    0.849745   -0.961168    0.798440
 H   -1.954491    0.817079    1.026965
 H   -2.069522    0.846787   -0.738119
 H    2.563217    0.821653   -1.032779
 H    3.117914   -0.639335   -0.211503
 H    2.674608    0.787757    0.728428
 H   -2.545208   -1.289658    0.138133
}
memory 700MB
set_num_threads(8)
psi4_io.set_default_path("/home/daniele/PSI4_sctatch/Psi4-1butanol_3D")
set freeze_core True
E, wfn = energy('wb97x-d/6-311+G*',return_wfn=True)
oeprop(wfn,"WIBERG_LOWDIN_INDICES")
clean()
