molecule { 
0 1
 O   -2.222318    0.272696   -0.606023
 C   -0.015305    0.628464    0.273441
 C    1.292493    0.042750    0.872918
 C   -1.098261   -0.421446   -0.060260
 C    2.350504   -0.340606   -0.181695
 H   -0.456378    1.325804    0.998647
 H    0.200782    1.226419   -0.621301
 H    1.068967   -0.819032    1.514820
 H    1.739278    0.793033    1.539313
 H   -0.706585   -1.153664   -0.777342
 H   -1.381436   -0.975738    0.843420
 H    1.964710   -1.097417   -0.872865
 H    3.245997   -0.750355    0.297507
 H    2.656836    0.530807   -0.770464
 H   -2.914208   -0.382806   -0.814693
}
set optking { 
  frozen_dihedral = ("
    4 2 3 5
    2 4 1 15
    3 2 4 1
    12 5 3 2
  ")
}
set {
  geom_maxiter 400
  g_convergence GAU_LOOSE
  dynamic_level 1
}
memory 700MB
set_num_threads(8)
psi4_io.set_default_path("/home/daniele/PSI4_sctatch/Psi4-1butanol_3D")
for _ in range(1):
  try:
    set opt_coordinates both
    optimize('wb97x-d/6-311G')
    break
  except OptimizationConvergenceError:
    break
  else:
    try:
      set opt_coordinates cartesian
      optimize('wb97x-d/6-311G')
      break
    except OptimizationConvergenceError:
      pass
clean()
