molecule { 
0 1
 O   -2.286118    0.403698   -0.503376
 C    0.051268   -0.152618   -0.505822
 C    1.303991   -0.685518    0.252785
 C   -1.241987   -0.093403    0.337115
 C    2.475661    0.315481    0.323528
 H    0.241630    0.850726   -0.908527
 H   -0.142587   -0.789004   -1.379645
 H    1.654579   -1.605024   -0.234326
 H    1.033204   -0.987282    1.272883
 H   -1.489922   -1.091684    0.719805
 H   -1.096171    0.558481    1.207546
 H    2.820965    0.591572   -0.678634
 H    3.325315   -0.118074    0.862020
 H    2.181341    1.231746    0.846738
 H   -3.106095    0.449813    0.023331
}
set optking { 
  frozen_dihedral = ("
    4 2 3 5
    2 4 1 15
    3 2 4 1
    12 5 3 2
  ")
}
set {
  geom_maxiter 400
  g_convergence GAU_LOOSE
  dynamic_level 1
}
memory 700MB
set_num_threads(8)
psi4_io.set_default_path("/home/daniele/PSI4_sctatch/Psi4-1butanol_3D")
for _ in range(1):
  try:
    set opt_coordinates both
    optimize('wb97x-d/6-311G')
    break
  except OptimizationConvergenceError:
    break
  else:
    try:
      set opt_coordinates cartesian
      optimize('wb97x-d/6-311G')
      break
    except OptimizationConvergenceError:
      pass
clean()
