molecule { 
0 1
 O   -1.899823   -0.713979   -0.736336
 C    0.050516    0.492496   -0.005573
 C    1.184301   -0.506314    0.345988
 C   -1.369672    0.010730    0.376204
 C    2.592422   -0.008267   -0.037789
 H    0.234187    1.434590    0.528313
 H    0.069288    0.742910   -1.074423
 H    0.993840   -1.461624   -0.161517
 H    1.163857   -0.723840    1.422023
 H   -1.350544   -0.597797    1.288655
 H   -2.003220    0.879475    0.596762
 H    2.666434    0.177338   -1.114788
 H    3.351452   -0.752343    0.225850
 H    2.840106    0.921153    0.485917
 H   -2.798071   -1.015620   -0.503864
}
set optking { 
  frozen_dihedral = ("
    3 2 4 1
    2 4 1 15
    4 2 3 5
    12 5 3 2
  ")
}
set {
  geom_maxiter 400
  g_convergence GAU_LOOSE
  dynamic_level 1
}
memory 700MB
set_num_threads(8)
psi4_io.set_default_path("/home/daniele/PSI4_sctatch/Psi4-1butanol_3D")
for _ in range(1):
  try:
    set opt_coordinates both
    optimize('wb97x-d/6-311G')
    break
  except OptimizationConvergenceError:
    break
  else:
    try:
      set opt_coordinates cartesian
      optimize('wb97x-d/6-311G')
      break
    except OptimizationConvergenceError:
      pass
clean()
