molecule { 
0 1
 O   -1.749631   -0.790975   -0.533247
 C   -0.030283    0.766541    0.052204
 C    1.024096   -0.325777    0.246570
 C   -1.442759    0.303852    0.360768
 C    2.440355    0.163463   -0.066261
 H    0.198457    1.622334    0.696616
 H    0.000383    1.124498   -0.980997
 H    0.767407   -1.174057   -0.389068
 H    0.980719   -0.684658    1.281037
 H   -1.505788   -0.026536    1.405564
 H   -2.148545    1.129868    0.214764
 H    2.512983    0.503954   -1.101912
 H    3.175006   -0.631185    0.076579
 H    2.720410    0.999477    0.579838
 H   -2.644482   -1.122693   -0.383495
}
memory 700MB
set_num_threads(8)
psi4_io.set_default_path("/home/daniele/PSI4_sctatch/Psi4-1butanol_3D")
set freeze_core True
E, wfn = energy('wb97x-d/6-311+G*',return_wfn=True)
oeprop(wfn,"WIBERG_LOWDIN_INDICES")
clean()
