molecule { 
0 1
 O   -2.006030    0.629296    0.359716
 C    0.041646   -0.094144   -0.647430
 C    1.099407   -0.261460    0.447029
 C   -1.352988   -0.527327   -0.218174
 C    2.492653    0.183214   -0.002656
 H   -0.019364    0.947597   -0.969171
 H    0.345656   -0.682087   -1.520503
 H    1.133982   -1.313269    0.750684
 H    0.790656    0.309843    1.326786
 H   -1.925036   -0.878105   -1.085339
 H   -1.291144   -1.346606    0.508442
 H    2.828944   -0.397610   -0.865244
 H    3.227296    0.055916    0.794600
 H    2.489147    1.236722   -0.291031
 H   -2.899117    0.411638    0.657353
}
memory 700MB
set_num_threads(8)
psi4_io.set_default_path("/home/daniele/PSI4_sctatch/Psi4-1butanol_3D")
set freeze_core True
E, wfn = energy('wb97x-d/6-311+G*',return_wfn=True)
oeprop(wfn,"WIBERG_LOWDIN_INDICES")
clean()
