molecule { 
0 1
 O   -2.473829    0.052120   -0.416038
 C   -0.043664    0.117632   -0.175981
 C    1.221764   -0.439288    0.526391
 C   -1.371345   -0.524340    0.303662
 C    2.535615    0.209201    0.044806
 H   -0.103191    1.201828   -0.012945
 H    0.037323   -0.037137   -1.259848
 H    1.281158   -1.524181    0.366434
 H    1.131696   -0.296812    1.611454
 H   -1.342733   -1.610661    0.155701
 H   -1.493097   -0.360201    1.381590
 H    2.684565    0.053670   -1.029227
 H    3.395580   -0.224038    0.566723
 H    2.539019    1.287466    0.237379
 H   -2.273782    0.973653   -0.664680
}
set optking { 
  frozen_dihedral = ("
    2 4 1 15
    4 2 3 5
    3 2 4 1
    12 5 3 2
  ")
}
set {
  geom_maxiter 400
  g_convergence GAU_LOOSE
  dynamic_level 1
}
memory 700MB
set_num_threads(8)
psi4_io.set_default_path("/home/daniele/PSI4_sctatch/Psi4-1butanol_3D")
for _ in range(1):
  try:
    set opt_coordinates both
    optimize('wb97x-d/6-311G')
    break
  except OptimizationConvergenceError:
    break
  else:
    try:
      set opt_coordinates cartesian
      optimize('wb97x-d/6-311G')
      break
    except OptimizationConvergenceError:
      pass
clean()
