molecule { 
0 1
 O   -2.219423    0.355663   -0.314648
 C   -0.054503   -0.584373   -0.565080
 C    1.455726   -0.677130   -0.202785
 C   -0.862771    0.467469    0.176241
 C    1.977067    0.298813    0.862824
 H   -0.175306   -0.381930   -1.630529
 H   -0.545038   -1.542239   -0.384139
 H    2.045856   -0.531021   -1.110300
 H    1.677585   -1.692635    0.132788
 H   -0.831649    0.289434    1.256666
 H   -0.467003    1.469976   -0.019929
 H    1.834788    1.339542    0.567246
 H    3.046280    0.146915    1.017328
 H    1.485151    0.151815    1.825798
 H   -2.798672    1.002030    0.109626
}
memory 700MB
set_num_threads(8)
psi4_io.set_default_path("/home/daniele/PSI4_sctatch/Psi4-1butanol_3D")
set freeze_core True
E, wfn = energy('wb97x-d/6-311+G*',return_wfn=True)
oeprop(wfn,"WIBERG_LOWDIN_INDICES")
clean()
