molecule { 
0 1
 O   -2.183664    0.709440    0.140537
 C    0.072381    0.032571   -0.404227
 C    1.215031   -0.295557    0.592331
 C   -1.338161   -0.439885    0.043310
 C    2.603428    0.187923    0.125781
 H    0.044623    1.114964   -0.587128
 H    0.290445   -0.426100   -1.377810
 H    1.253720   -1.379871    0.761215
 H    0.989706    0.158123    1.566843
 H   -1.739761   -1.157508   -0.683347
 H   -1.289901   -0.970889    1.002071
 H    2.883208   -0.271680   -0.828249
 H    3.372485   -0.072150    0.860847
 H    2.619840    1.275463   -0.003922
 H   -3.068305    0.414065    0.427170
}
set optking { 
  frozen_dihedral = ("
    3 2 4 1
    2 4 1 15
    4 2 3 5
    12 5 3 2
  ")
}
set {
  geom_maxiter 400
  g_convergence GAU_LOOSE
  dynamic_level 1
}
memory 700MB
set_num_threads(8)
psi4_io.set_default_path("/home/daniele/PSI4_sctatch/Psi4-1butanol_3D")
for _ in range(1):
  try:
    set opt_coordinates both
    optimize('wb97x-d/6-311G')
    break
  except OptimizationConvergenceError:
    break
  else:
    try:
      set opt_coordinates cartesian
      optimize('wb97x-d/6-311G')
      break
    except OptimizationConvergenceError:
      pass
clean()
