molecule { 
0 1
 O   -2.403297    0.415944   -0.291906
 C   -0.005723    0.233768   -0.131717
 C    1.232088   -0.408601    0.545281
 C   -1.361939   -0.250317    0.429302
 C    2.577495    0.087634   -0.022127
 H    0.036496    1.325643   -0.023460
 H    0.014548    0.026691   -1.209651
 H    1.182528   -1.500366    0.439274
 H    1.204951   -0.206254    1.624221
 H   -1.450215   -1.340654    0.338993
 H   -1.427140   -0.016092    1.498873
 H    2.660949   -0.131160   -1.091982
 H    3.416212   -0.401192    0.485050
 H    2.689448    1.168891    0.113717
 H   -2.641326   -0.125026   -1.068447
}
set optking { 
  frozen_dihedral = ("
    2 4 1 15
    4 2 3 5
    3 2 4 1
    12 5 3 2
  ")
}
set {
  geom_maxiter 400
  g_convergence GAU_LOOSE
  dynamic_level 1
}
memory 700MB
set_num_threads(8)
psi4_io.set_default_path("/home/daniele/PSI4_sctatch/Psi4-1butanol_3D")
for _ in range(1):
  try:
    set opt_coordinates both
    optimize('wb97x-d/6-311G')
    break
  except OptimizationConvergenceError:
    break
  else:
    try:
      set opt_coordinates cartesian
      optimize('wb97x-d/6-311G')
      break
    except OptimizationConvergenceError:
      pass
clean()
