molecule { 
0 1
 O   -2.212722    0.386854   -0.423782
 C    0.017964   -0.480482   -0.637333
 C    1.393395   -0.828495   -0.006147
 C   -1.018295    0.147101    0.324080
 C    2.158367    0.370480    0.593405
 H    0.165446    0.207892   -1.480062
 H   -0.422645   -1.390829   -1.065249
 H    2.024121   -1.304356   -0.768774
 H    1.251592   -1.587856    0.774232
 H   -1.211545   -0.529923    1.165638
 H   -0.633718    1.083815    0.745477
 H    2.363265    1.129085   -0.169606
 H    3.121599    0.045652    1.001429
 H    1.599395    0.841469    1.408306
 H   -2.871145    0.788504    0.173807
}
set optking { 
  frozen_dihedral = ("
    4 2 3 5
    2 4 1 15
    3 2 4 1
    12 5 3 2
  ")
}
set {
  geom_maxiter 400
  g_convergence GAU_LOOSE
  dynamic_level 1
}
memory 700MB
set_num_threads(8)
psi4_io.set_default_path("/home/daniele/PSI4_sctatch/Psi4-1butanol_3D")
for _ in range(1):
  try:
    set opt_coordinates both
    optimize('wb97x-d/6-311G')
    break
  except OptimizationConvergenceError:
    break
  else:
    try:
      set opt_coordinates cartesian
      optimize('wb97x-d/6-311G')
      break
    except OptimizationConvergenceError:
      pass
clean()
