molecule { 
0 1
 O   -2.485185    0.243803   -0.243990
 C   -0.046243    0.164136   -0.134471
 C    1.219120   -0.403421    0.559527
 C   -1.382548   -0.334987    0.473609
 C    2.542046    0.102839   -0.050615
 H   -0.036893    1.260798   -0.081519
 H   -0.027488   -0.103571   -1.199229
 H    1.202241   -1.500397    0.512614
 H    1.198095   -0.144960    1.626648
 H   -1.427007   -1.430037    0.420236
 H   -1.436688   -0.072678    1.537080
 H    2.620418   -0.170024   -1.108508
 H    3.401238   -0.332751    0.470687
 H    2.622264    1.192604    0.026411
 H   -2.238294    0.407555   -1.173059
}
set optking { 
  frozen_dihedral = ("
    2 4 1 15
    4 2 3 5
    3 2 4 1
    12 5 3 2
  ")
}
set {
  geom_maxiter 400
  g_convergence GAU_LOOSE
  dynamic_level 1
}
memory 700MB
set_num_threads(8)
psi4_io.set_default_path("/home/daniele/PSI4_sctatch/Psi4-1butanol_3D")
for _ in range(1):
  try:
    set opt_coordinates both
    optimize('wb97x-d/6-311G')
    break
  except OptimizationConvergenceError:
    break
  else:
    try:
      set opt_coordinates cartesian
      optimize('wb97x-d/6-311G')
      break
    except OptimizationConvergenceError:
      pass
clean()
