molecule { 
0 1
 O   -1.676525    0.198499    1.059572
 C    0.109178   -0.147385   -0.567029
 C    1.101228   -0.037054    0.628271
 C   -1.382224   -0.398391   -0.207410
 C    2.561582    0.215155    0.201607
 H    0.150263    0.789463   -1.138998
 H    0.433055   -0.935593   -1.259433
 H    1.054640   -0.957201    1.225398
 H    0.784612    0.773455    1.298089
 H   -2.033649   -0.006262   -0.998464
 H   -1.566276   -1.479672   -0.165608
 H    2.932782   -0.594674   -0.435330
 H    3.215492    0.277980    1.077773
 H    2.654521    1.155746   -0.351766
 H   -2.613599    0.024845    1.268750
}
set optking { 
  frozen_dihedral = ("
    3 2 4 1
    2 4 1 15
    4 2 3 5
    12 5 3 2
  ")
}
set {
  geom_maxiter 400
  g_convergence GAU_LOOSE
  dynamic_level 1
}
memory 700MB
set_num_threads(8)
psi4_io.set_default_path("/home/daniele/PSI4_sctatch/Psi4-1butanol_3D")
for _ in range(1):
  try:
    set opt_coordinates both
    optimize('wb97x-d/6-311G')
    break
  except OptimizationConvergenceError:
    break
  else:
    try:
      set opt_coordinates cartesian
      optimize('wb97x-d/6-311G')
      break
    except OptimizationConvergenceError:
      pass
clean()
