molecule { 
0 1
 O   -2.207243    0.202008   -0.508432
 C   -0.093999    0.669533    0.535841
 C    1.375978    0.287196    0.890215
 C   -0.905912   -0.350754   -0.298183
 C    2.120151   -0.606699   -0.125387
 H   -0.647613    0.894701    1.456848
 H   -0.080273    1.607513   -0.035900
 H    1.369775   -0.241044    1.853322
 H    1.955945    1.202164    1.069275
 H   -0.412379   -0.544376   -1.258419
 H   -0.968436   -1.307809    0.234804
 H    1.615421   -1.567996   -0.267078
 H    3.138968   -0.815265    0.218284
 H    2.193871   -0.113410   -1.100531
 H   -2.729179   -0.436854   -1.029238
}
set optking { 
  frozen_dihedral = ("
    4 2 3 5
    2 4 1 15
    3 2 4 1
    12 5 3 2
  ")
}
set {
  geom_maxiter 400
  g_convergence GAU_LOOSE
  dynamic_level 1
}
memory 700MB
set_num_threads(8)
psi4_io.set_default_path("/home/daniele/PSI4_sctatch/Psi4-1butanol_3D")
for _ in range(1):
  try:
    set opt_coordinates both
    optimize('wb97x-d/6-311G')
    break
  except OptimizationConvergenceError:
    break
  else:
    try:
      set opt_coordinates cartesian
      optimize('wb97x-d/6-311G')
      break
    except OptimizationConvergenceError:
      pass
clean()
