molecule { 
0 1
 O   -2.306216    0.391629   -0.532791
 C    0.068883    0.215948   -0.227012
 C    1.231909   -0.425033    0.534506
 C   -1.287059   -0.265829    0.256676
 C    2.595467    0.068488    0.044759
 H    0.109951    1.303788   -0.125695
 H    0.151089   -0.006732   -1.293964
 H    1.180038   -1.514162    0.430095
 H    1.129963   -0.211344    1.603760
 H   -1.348705   -1.355268    0.144807
 H   -1.421951   -0.023951    1.316832
 H    2.734076   -0.161216   -1.014030
 H    3.410854   -0.398187    0.600318
 H    2.681933    1.150628    0.164444
 H   -3.093218   -0.159754   -0.621203
}
memory 700MB
set_num_threads(8)
psi4_io.set_default_path("/home/daniele/PSI4_sctatch/Psi4-1butanol_3D")
set freeze_core True
E, wfn = energy('wb97x-d/6-311+G*',return_wfn=True)
oeprop(wfn,"WIBERG_LOWDIN_INDICES")
clean()
