molecule { 
0 1
 O   -2.418013    0.212025   -0.375791
 C    0.050203    0.238788   -0.207634
 C    1.283443   -0.391985    0.445259
 C   -1.260002   -0.384610    0.257006
 C    2.591754    0.245972   -0.027549
 H    0.029364    1.312031    0.014248
 H    0.123170    0.136053   -1.296631
 H    1.298016   -1.464029    0.225898
 H    1.202342   -0.298757    1.532678
 H   -1.265451   -1.453102    0.029697
 H   -1.367469   -0.265583    1.337567
 H    2.708904    0.139048   -1.108320
 H    3.454887   -0.218961    0.451274
 H    2.611700    1.312734    0.206563
 H   -2.156286    0.910416   -0.990372
}
memory 700MB
set_num_threads(8)
psi4_io.set_default_path("/home/daniele/PSI4_sctatch/Psi4-1butanol_3D")
set freeze_core True
E, wfn = energy('wb97x-d/6-311+G*',return_wfn=True)
oeprop(wfn,"WIBERG_LOWDIN_INDICES")
clean()
