molecule { 
0 1
 O   -2.010822   -1.148628    0.770762
 C   -0.173950    0.124415   -0.252552
 C    1.312713    0.486452   -0.185095
 C   -0.604603   -0.816052    0.864489
 C    1.741291    1.435094   -1.307174
 H   -0.776098    1.039393   -0.199551
 H   -0.407050   -0.346081   -1.212151
 H    1.912685   -0.429263   -0.231416
 H    1.533147    0.946663    0.785272
 H   -0.068755   -1.762532    0.786484
 H   -0.368429   -0.379121    1.842606
 H    1.563180    0.984184   -2.286893
 H    2.802212    1.679603   -1.237686
 H    1.175961    2.369675   -1.265114
 H   -2.547040   -0.517275    1.267871
}
memory 700MB
set_num_threads(8)
psi4_io.set_default_path("/home/daniele/PSI4_sctatch/Psi4-1butanol_3D")
set freeze_core True
E, wfn = energy('wb97x-d/6-311+G*',return_wfn=True)
oeprop(wfn,"WIBERG_LOWDIN_INDICES")
clean()
