molecule { 
0 1
 O   -2.407027    0.357385   -0.316333
 C    0.059606    0.212039   -0.235508
 C    1.269077   -0.427438    0.451457
 C   -1.271436   -0.248710    0.344741
 C    2.599766    0.046558   -0.137547
 H    0.118082    1.301789   -0.157535
 H    0.084823   -0.034988   -1.304982
 H    1.197879   -1.516371    0.367792
 H    1.239302   -0.196141    1.520856
 H   -1.341885   -1.339738    0.272017
 H   -1.350572    0.027485    1.395372
 H    2.665394   -0.198494   -1.200130
 H    3.445764   -0.421381    0.368076
 H    2.705176    1.129069   -0.037983
 H   -2.199286    0.548529   -1.241334
}
memory 700MB
set_num_threads(8)
psi4_io.set_default_path("/home/daniele/PSI4_sctatch/Psi4-1butanol_3D")
set freeze_core True
E, wfn = energy('wb97x-d/6-311+G*',return_wfn=True)
oeprop(wfn,"WIBERG_LOWDIN_INDICES")
clean()
