molecule { 
0 1
 O   -2.288857    0.354362   -0.592822
 C    0.068533    0.207732   -0.231796
 C    1.225414   -0.406382    0.561108
 C   -1.288419   -0.293579    0.225115
 C    2.590717    0.107446    0.097514
 H    0.085131    1.296432   -0.135404
 H    0.181247   -0.019287   -1.295091
 H    1.195097   -1.496964    0.465496
 H    1.095809   -0.185039    1.625877
 H   -1.341713   -1.383610    0.111221
 H   -1.438316   -0.051522    1.284804
 H    2.756949   -0.128789   -0.955825
 H    3.401585   -0.339998    0.675109
 H    2.655496    1.191992    0.209515
 H   -3.178530    0.074352   -0.339744
}
memory 700MB
set_num_threads(8)
psi4_io.set_default_path("/home/daniele/PSI4_sctatch/Psi4-1butanol_3D")
set freeze_core True
E, wfn = energy('wb97x-d/6-311+G*',return_wfn=True)
oeprop(wfn,"WIBERG_LOWDIN_INDICES")
clean()
