molecule { 
0 1
 O   -2.182336    0.647903   -0.000425
 C    0.069910   -0.031869   -0.511449
 C    1.173126   -0.333619    0.507823
 C   -1.314125   -0.510069   -0.067795
 C    2.549613    0.154140    0.051740
 H   -0.002395    1.046886   -0.665706
 H    0.340842   -0.471922   -1.475546
 H    1.213264   -1.412536    0.693417
 H    0.911647    0.135970    1.461290
 H   -1.721260   -1.246444   -0.769813
 H   -1.248166   -0.983819    0.919739
 H    2.840491   -0.322318   -0.887531
 H    3.317815   -0.070035    0.793974
 H    2.543521    1.234177   -0.111198
 H   -3.071879    0.397118    0.282451
}
memory 700MB
set_num_threads(8)
psi4_io.set_default_path("/home/daniele/PSI4_sctatch/Psi4-1butanol_3D")
set freeze_core True
E, wfn = energy('wb97x-d/6-311+G*',return_wfn=True)
oeprop(wfn,"WIBERG_LOWDIN_INDICES")
clean()
