molecule { 
0 1
 O   -2.197511    0.240796   -0.571879
 C   -0.053635    0.677687    0.420070
 C    1.332624    0.176815    0.909082
 C   -0.985366   -0.404318   -0.174234
 C    2.212689   -0.476291   -0.177907
 H   -0.579202    1.157095    1.256895
 H    0.087795    1.461059   -0.336424
 H    1.189062   -0.539386    1.728884
 H    1.881274    1.020518    1.348001
 H   -0.510229   -0.892437   -1.033750
 H   -1.181968   -1.184498    0.571932
 H    1.727340   -1.352687   -0.618717
 H    3.169962   -0.802267    0.242789
 H    2.427415    0.231729   -0.985717
 H   -2.795174   -0.434907   -0.943603
}
set optking { 
  frozen_dihedral = ("
    4 2 3 5
    2 4 1 15
    3 2 4 1
    12 5 3 2
  ")
}
set {
  geom_maxiter 400
  g_convergence GAU_LOOSE
  dynamic_level 1
}
memory 700MB
set_num_threads(8)
psi4_io.set_default_path("/home/daniele/PSI4_sctatch/Psi4-1butanol_3D")
for _ in range(1):
  try:
    set opt_coordinates both
    optimize('wb97x-d/6-311G')
    break
  except OptimizationConvergenceError:
    break
  else:
    try:
      set opt_coordinates cartesian
      optimize('wb97x-d/6-311G')
      break
    except OptimizationConvergenceError:
      pass
clean()
