molecule { 
0 1
 O   -2.195246    0.467184   -0.403523
 C    0.007216   -0.418061   -0.620233
 C    1.356155   -0.782690    0.015352
 C   -0.988434    0.196511    0.346626
 C    2.115120    0.399749    0.628669
 H    0.162181    0.290739   -1.438611
 H   -0.450943   -1.308670   -1.055721
 H    1.981060   -1.251811   -0.748717
 H    1.195065   -1.543927    0.786784
 H   -1.187445   -0.499508    1.171840
 H   -0.593012    1.126928    0.767877
 H    2.330064    1.157494   -0.128630
 H    3.069887    0.070663    1.043045
 H    1.555894    0.873606    1.436778
 H   -2.871287    0.867507    0.159109
}
memory 700MB
set_num_threads(8)
psi4_io.set_default_path("/home/daniele/PSI4_sctatch/Psi4-1butanol_3D")
set freeze_core True
E, wfn = energy('wb97x-d/6-311+G*',return_wfn=True)
oeprop(wfn,"WIBERG_LOWDIN_INDICES")
clean()
