molecule { 
0 1
 O   -2.257701    0.444732   -0.504453
 C    0.063128   -0.125821   -0.500791
 C    1.271764   -0.672059    0.291070
 C   -1.201553   -0.068727    0.337190
 C    2.430562    0.325868    0.378474
 H    0.271348    0.882872   -0.865850
 H   -0.142169   -0.737282   -1.381169
 H    1.627948   -1.599465   -0.163398
 H    0.959875   -0.939394    1.307156
 H   -1.451798   -1.072189    0.703792
 H   -1.042610    0.583245    1.205703
 H    2.791943    0.586885   -0.618448
 H    3.269257   -0.082132    0.946001
 H    2.109915    1.249500    0.866326
 H   -3.090272    0.508229   -0.018253
}
memory 700MB
set_num_threads(8)
psi4_io.set_default_path("/home/daniele/PSI4_sctatch/Psi4-1butanol_3D")
set freeze_core True
E, wfn = energy('wb97x-d/6-311+G*',return_wfn=True)
oeprop(wfn,"WIBERG_LOWDIN_INDICES")
clean()
