molecule { 
0 1
 O   -2.324318    0.356498   -0.551693
 C    0.051209    0.211903   -0.227420
 C    1.252064   -0.409054    0.531113
 C   -1.329873   -0.294889    0.241884
 C    2.623889    0.110119    0.054145
 H    0.068923    1.304456   -0.118157
 H    0.144413    0.003953   -1.301601
 H    1.228044   -1.501458    0.422328
 H    1.150001   -0.208179    1.605776
 H   -1.391541   -1.384615    0.128876
 H   -1.472239   -0.074155    1.307239
 H    2.782472   -0.107351   -1.007668
 H    3.435342   -0.362925    0.617421
 H    2.707426    1.193228    0.194300
 H   -3.200736    0.041379   -0.261125
}
set optking { 
  frozen_dihedral = ("
    2 4 1 15
    4 2 3 5
    3 2 4 1
    12 5 3 2
  ")
}
set {
  geom_maxiter 400
  g_convergence GAU_LOOSE
  dynamic_level 1
}
memory 700MB
set_num_threads(8)
psi4_io.set_default_path("/home/daniele/PSI4_sctatch/Psi4-1butanol_3D")
for _ in range(1):
  try:
    set opt_coordinates both
    optimize('wb97x-d/6-311G')
    break
  except OptimizationConvergenceError:
    break
  else:
    try:
      set opt_coordinates cartesian
      optimize('wb97x-d/6-311G')
      break
    except OptimizationConvergenceError:
      pass
clean()
