molecule { 
0 1
 O   -2.245528    0.307775   -0.636487
 C    0.023143    0.514436    0.086322
 C    1.239069   -0.144722    0.774239
 C   -1.182200   -0.406948    0.031310
 C    2.463788   -0.242802   -0.140485
 H   -0.273773    1.430672    0.599546
 H    0.274383    0.800510   -0.937970
 H    0.972520   -1.151502    1.115438
 H    1.505869    0.412579    1.675219
 H   -0.924504   -1.322639   -0.516199
 H   -1.483230   -0.689356    1.047962
 H    2.237090   -0.836891   -1.029045
 H    3.308525   -0.709614    0.370040
 H    2.777208    0.748329   -0.474958
 H   -3.044522   -0.232365   -0.695149
}
memory 700MB
set_num_threads(8)
psi4_io.set_default_path("/home/daniele/PSI4_sctatch/Psi4-1butanol_3D")
set freeze_core True
E, wfn = energy('wb97x-d/6-311+G*',return_wfn=True)
oeprop(wfn,"WIBERG_LOWDIN_INDICES")
clean()
