molecule { 
0 1
 O   -2.365463    0.445065   -0.370543
 C    0.021553    0.245963   -0.157599
 C    1.241975   -0.407599    0.539715
 C   -1.347796   -0.234568    0.370925
 C    2.601384    0.085963    0.003824
 H    0.068026    1.336746   -0.041696
 H    0.061098    0.046791   -1.236416
 H    1.189166   -1.498152    0.423836
 H    1.193680   -0.213670    1.619349
 H   -1.434695   -1.323502    0.262800
 H   -1.439047   -0.014622    1.441447
 H    2.705731   -0.125377   -1.065858
 H    3.427254   -0.410235    0.524677
 H    2.715514    1.165547    0.149971
 H   -2.913305   -0.219442   -0.829011
}
set optking { 
  frozen_dihedral = ("
    2 4 1 15
    4 2 3 5
    3 2 4 1
    12 5 3 2
  ")
}
set {
  geom_maxiter 400
  g_convergence GAU_LOOSE
  dynamic_level 1
}
memory 700MB
set_num_threads(8)
psi4_io.set_default_path("/home/daniele/PSI4_sctatch/Psi4-1butanol_3D")
for _ in range(1):
  try:
    set opt_coordinates both
    optimize('wb97x-d/6-311G')
    break
  except OptimizationConvergenceError:
    break
  else:
    try:
      set opt_coordinates cartesian
      optimize('wb97x-d/6-311G')
      break
    except OptimizationConvergenceError:
      pass
clean()
