molecule { 
0 1
 O   -1.675122   -0.904317   -0.309613
 C   -0.016005    0.823647    0.097544
 C    0.980044   -0.339774    0.073250
 C   -1.477308    0.402516    0.278712
 C    2.421500    0.144665   -0.105864
 H    0.244441    1.525623    0.895390
 H    0.089407    1.372169   -0.844575
 H    0.704502   -1.021933   -0.729175
 H    0.898445   -0.913159    1.001864
 H   -1.710861    0.350646    1.349653
 H   -2.143174    1.142585   -0.177883
 H    2.534985    0.694279   -1.043844
 H    3.118441   -0.695292   -0.124897
 H    2.721082    0.810233    0.707935
 H   -2.592847   -1.189570   -0.212377
}
memory 700MB
set_num_threads(8)
psi4_io.set_default_path("/home/daniele/PSI4_sctatch/Psi4-1butanol_3D")
set freeze_core True
E, wfn = energy('wb97x-d/6-311+G*',return_wfn=True)
oeprop(wfn,"WIBERG_LOWDIN_INDICES")
clean()
