molecule { 
0 1
 O   -2.195158    0.414771   -0.374668
 C   -0.032960   -0.551602   -0.584789
 C    1.405850   -0.766583   -0.065336
 C   -0.901236    0.354422    0.269568
 C    2.016571    0.401565    0.720003
 H   -0.004581   -0.102915   -1.581805
 H   -0.541270   -1.510708   -0.694004
 H    2.050683   -1.013895   -0.911101
 H    1.417011   -1.645542    0.587601
 H   -0.993569   -0.047172    1.287694
 H   -0.461674    1.355131    0.332502
 H    2.065597    1.311047    0.115936
 H    3.035255    0.158435    1.027566
 H    1.447145    0.623092    1.624065
 H   -2.802713    0.983805    0.116074
}
memory 700MB
set_num_threads(8)
psi4_io.set_default_path("/home/daniele/PSI4_sctatch/Psi4-1butanol_3D")
set freeze_core True
E, wfn = energy('wb97x-d/6-311+G*',return_wfn=True)
oeprop(wfn,"WIBERG_LOWDIN_INDICES")
clean()
