molecule { 
0 1
 O   -2.135312   -0.195785   -0.766830
 C    0.037154    0.514761   -0.010541
 C    1.178800   -0.402368    0.439500
 C   -1.344441    0.024025    0.427042
 C    2.553469    0.103813   -0.001658
 H    0.222821    1.527444    0.358739
 H    0.021499    0.574030   -1.100887
 H    1.006762   -1.405393    0.036673
 H    1.160654   -0.498371    1.530666
 H   -1.248595   -0.914090    0.987733
 H   -1.836356    0.757173    1.075878
 H    2.608537    0.176995   -1.090105
 H    3.349655   -0.564344    0.331292
 H    2.753694    1.096327    0.409043
 H   -3.023573   -0.502902   -0.541396
}
memory 700MB
set_num_threads(8)
psi4_io.set_default_path("/home/daniele/PSI4_sctatch/Psi4-1butanol_3D")
set freeze_core True
E, wfn = energy('wb97x-d/6-311+G*',return_wfn=True)
oeprop(wfn,"WIBERG_LOWDIN_INDICES")
clean()
