molecule { 
0 1
 O   -2.278000    0.537728   -0.335591
 C    0.075725    0.073476   -0.367616
 C    1.216024   -0.377997    0.549769
 C   -1.288094   -0.429322    0.086979
 C    2.581373    0.135953    0.086813
 H    0.026398    1.165476   -0.363511
 H    0.272271   -0.230951   -1.398521
 H    1.237263   -1.472141    0.605372
 H    1.016636   -0.021133    1.565213
 H   -1.502485   -1.419191   -0.332539
 H   -1.296738   -0.514315    1.181223
 H    2.812919   -0.224042   -0.918157
 H    3.378902   -0.193461    0.755094
 H    2.594248    1.227788    0.058606
 H   -3.165381    0.266819   -0.064866
}
memory 700MB
set_num_threads(8)
psi4_io.set_default_path("/home/daniele/PSI4_sctatch/Psi4-1butanol_3D")
set freeze_core True
E, wfn = energy('wb97x-d/6-311+G*',return_wfn=True)
oeprop(wfn,"WIBERG_LOWDIN_INDICES")
clean()
