molecule { 
0 1
 O   -2.165198   -0.990399    0.443755
 C   -0.135486    0.152956   -0.252760
 C    1.360732    0.379759   -0.010193
 C   -0.757811   -0.819850    0.740594
 C    1.979307    1.362363   -1.010323
 H   -0.671670    1.106554   -0.185027
 H   -0.298431   -0.230314   -1.265558
 H    1.888364   -0.580195   -0.069990
 H    1.513109    0.754101    1.009964
 H   -0.275859   -1.799529    0.661299
 H   -0.612294   -0.454188    1.765314
 H    1.870918    0.996673   -2.035196
 H    3.045110    1.509002   -0.817876
 H    1.489922    2.339152   -0.951294
 H   -2.718859   -0.725461    1.188191
}
memory 700MB
set_num_threads(8)
psi4_io.set_default_path("/home/daniele/PSI4_sctatch/Psi4-1butanol_3D")
set freeze_core True
E, wfn = energy('wb97x-d/6-311+G*',return_wfn=True)
oeprop(wfn,"WIBERG_LOWDIN_INDICES")
clean()
