molecule { 
0 1
 O   -2.303377    0.330671   -0.583464
 C    0.068561    0.211885   -0.230628
 C    1.232175   -0.409862    0.545822
 C   -1.283872   -0.312370    0.217322
 C    2.592011    0.126301    0.091940
 H    0.073554    1.298050   -0.108465
 H    0.183503    0.012150   -1.299388
 H    1.210954   -1.498126    0.425635
 H    1.102738   -0.213906    1.615763
 H   -1.334629   -1.398755    0.083610
 H   -1.426822   -0.092699    1.282416
 H    2.758182   -0.084495   -0.966761
 H    3.407778   -0.327221    0.657717
 H    2.647845    1.208543    0.228455
 H   -3.130249    0.421232   -0.094267
}
memory 700MB
set_num_threads(8)
psi4_io.set_default_path("/home/daniele/PSI4_sctatch/Psi4-1butanol_3D")
set freeze_core True
E, wfn = energy('wb97x-d/6-311+G*',return_wfn=True)
oeprop(wfn,"WIBERG_LOWDIN_INDICES")
clean()
