molecule { 
0 1
 O   -1.789419    0.498516    0.832412
 C    0.096123   -0.097654   -0.548593
 C    1.121802   -0.137199    0.618055
 C   -1.355423   -0.447108   -0.149195
 C    2.559418    0.219543    0.190880
 H    0.091156    0.901847   -1.003239
 H    0.407322   -0.794498   -1.338281
 H    1.120391   -1.136311    1.073121
 H    0.803610    0.554882    1.409225
 H   -2.002044   -0.417504   -1.035227
 H   -1.403042   -1.471306    0.241126
 H    2.929025   -0.474732   -0.571084
 H    3.241344    0.171726    1.046365
 H    2.608512    1.234070   -0.219073
 H   -2.703697    0.274638    1.088929
}
set optking { 
  frozen_dihedral = ("
    3 2 4 1
    2 4 1 15
    4 2 3 5
    12 5 3 2
  ")
}
set {
  geom_maxiter 400
  g_convergence GAU_LOOSE
  dynamic_level 1
}
memory 700MB
set_num_threads(8)
psi4_io.set_default_path("/home/daniele/PSI4_sctatch/Psi4-1butanol_3D")
for _ in range(1):
  try:
    set opt_coordinates both
    optimize('wb97x-d/6-311G')
    break
  except OptimizationConvergenceError:
    break
  else:
    try:
      set opt_coordinates cartesian
      optimize('wb97x-d/6-311G')
      break
    except OptimizationConvergenceError:
      pass
clean()
