molecule { 
0 1
 O   -1.936029   -0.548706   -0.710606
 C   -0.003909    0.653618    0.033223
 C    1.105382   -0.348347    0.365332
 C   -1.395170    0.173951    0.422267
 C    2.495394    0.154394   -0.029860
 H    0.207853    1.594404    0.553273
 H   -0.016609    0.875310   -1.035949
 H    0.891451   -1.293389   -0.141349
 H    1.086527   -0.556238    1.440586
 H   -1.342882   -0.469476    1.308999
 H   -2.039885    1.029813    0.654923
 H    2.546994    0.347880   -1.103650
 H    3.267715   -0.576315    0.217089
 H    2.735883    1.086146    0.488381
 H   -2.826102   -0.874127   -0.522334
}
memory 700MB
set_num_threads(8)
psi4_io.set_default_path("/home/daniele/PSI4_sctatch/Psi4-1butanol_3D")
set freeze_core True
E, wfn = energy('wb97x-d/6-311+G*',return_wfn=True)
oeprop(wfn,"WIBERG_LOWDIN_INDICES")
clean()
