molecule { 
0 1
 O   -2.253684    0.133089   -0.704479
 C    0.058317    0.362120   -0.105731
 C    1.218940   -0.432669    0.500061
 C   -1.306056   -0.132077    0.356336
 C    2.585582    0.074331    0.033283
 H    0.172568    1.427456    0.108933
 H    0.081370    0.253713   -1.193229
 H    1.107514   -1.486904    0.227509
 H    1.167835   -0.389236    1.593795
 H   -1.255374   -1.211906    0.546257
 H   -1.609295    0.362743    1.286403
 H    2.674954    0.002299   -1.052926
 H    3.397463   -0.505282    0.476282
 H    2.728871    1.121004    0.310807
 H   -3.141473   -0.158511   -0.457593
}
memory 700MB
set_num_threads(8)
psi4_io.set_default_path("/home/daniele/PSI4_sctatch/Psi4-1butanol_3D")
set freeze_core True
E, wfn = energy('wb97x-d/6-311+G*',return_wfn=True)
oeprop(wfn,"WIBERG_LOWDIN_INDICES")
clean()
