molecule { 
0 1
 O   -2.280688    0.392106   -0.573561
 C    0.075201    0.041879   -0.373954
 C    1.239650   -0.542600    0.441954
 C   -1.272686   -0.188229    0.284198
 C    2.546884    0.231366    0.250978
 H    0.205927    1.121812   -0.487145
 H    0.055313   -0.377915   -1.381579
 H    1.385382   -1.595413    0.185560
 H    0.980646   -0.522015    1.507248
 H   -1.449193   -1.262828    0.420723
 H   -1.283984    0.288728    1.272292
 H    2.856365    0.225432   -0.796652
 H    3.356497   -0.203526    0.840243
 H    2.425651    1.272322    0.557952
 H   -3.163785    0.278763   -0.197716
}
memory 700MB
set_num_threads(8)
psi4_io.set_default_path("/home/daniele/PSI4_sctatch/Psi4-1butanol_3D")
set freeze_core True
E, wfn = energy('wb97x-d/6-311+G*',return_wfn=True)
oeprop(wfn,"WIBERG_LOWDIN_INDICES")
clean()
