molecule { 
0 1
 O   -2.394846    0.090291   -0.509341
 C    0.059177    0.194899   -0.256446
 C    1.271254   -0.285943    0.546019
 C   -1.259381   -0.363390    0.263956
 C    2.591399    0.282411    0.019566
 H    0.019445    1.291618   -0.224404
 H    0.164553   -0.086871   -1.307401
 H    1.309285   -1.380051    0.522389
 H    1.145325   -0.004281    1.596817
 H   -1.276794   -1.448552    0.180855
 H   -1.385379   -0.100973    1.321782
 H    2.754155   -0.013087   -1.019389
 H    3.439825   -0.072873    0.606902
 H    2.588586    1.374343    0.058830
 H   -2.452382    1.055996   -0.476515
}
memory 700MB
set_num_threads(8)
psi4_io.set_default_path("/home/daniele/PSI4_sctatch/Psi4-1butanol_3D")
set freeze_core True
E, wfn = energy('wb97x-d/6-311+G*',return_wfn=True)
oeprop(wfn,"WIBERG_LOWDIN_INDICES")
clean()
