molecule { 
0 1
 O   -2.202798    0.263196   -0.643631
 C   -0.010499    0.612671    0.240537
 C    1.266629   -0.001625    0.839973
 C   -1.065527   -0.430604   -0.083162
 C    2.302833   -0.394963   -0.218539
 H   -0.457859    1.324024    0.938268
 H    0.225955    1.168548   -0.669581
 H    1.008219   -0.873230    1.450614
 H    1.723674    0.719410    1.522556
 H   -0.670731   -1.165701   -0.795883
 H   -1.350595   -0.960870    0.833909
 H    1.900080   -1.133360   -0.916239
 H    3.194966   -0.825588    0.240188
 H    2.609309    0.478704   -0.797276
 H   -2.911918   -0.354775   -0.864801
}
memory 700MB
set_num_threads(8)
psi4_io.set_default_path("/home/daniele/PSI4_sctatch/Psi4-1butanol_3D")
set freeze_core True
E, wfn = energy('wb97x-d/6-311+G*',return_wfn=True)
oeprop(wfn,"WIBERG_LOWDIN_INDICES")
clean()
