molecule { 
0 1
 O   -2.329943    0.261178   -0.608058
 C    0.046037    0.176032   -0.251978
 C    1.249499   -0.412251    0.528773
 C   -1.329426   -0.360355    0.202776
 C    2.616465    0.133728    0.068844
 H    0.036814    1.269688   -0.153652
 H    0.160120   -0.039741   -1.322808
 H    1.251939   -1.505624    0.427287
 H    1.126555   -0.206611    1.600412
 H   -1.368379   -1.451747    0.100128
 H   -1.485235   -0.133120    1.265538
 H    2.795805   -0.087960   -0.988666
 H    3.429430   -0.318540    0.646928
 H    2.674419    1.219306    0.202884
 H   -3.149022    0.334927   -0.082988
}
set optking { 
  frozen_dihedral = ("
    2 4 1 15
    4 2 3 5
    3 2 4 1
    12 5 3 2
  ")
}
set {
  geom_maxiter 400
  g_convergence GAU_LOOSE
  dynamic_level 1
}
memory 700MB
set_num_threads(8)
psi4_io.set_default_path("/home/daniele/PSI4_sctatch/Psi4-1butanol_3D")
for _ in range(1):
  try:
    set opt_coordinates both
    optimize('wb97x-d/6-311G')
    break
  except OptimizationConvergenceError:
    break
  else:
    try:
      set opt_coordinates cartesian
      optimize('wb97x-d/6-311G')
      break
    except OptimizationConvergenceError:
      pass
clean()
