molecule { 
0 1
 O   -2.394411    0.077453   -0.530798
 C    0.055113    0.219050   -0.229601
 C    1.269140   -0.304116    0.542457
 C   -1.256348   -0.416317    0.214206
 C    2.579206    0.345087    0.090092
 H   -0.013351    1.306349   -0.093981
 H    0.187357    0.037829   -1.300525
 H    1.335478   -1.389221    0.415954
 H    1.121471   -0.125132    1.612093
 H   -1.235869   -1.493682    0.055208
 H   -1.407166   -0.231588    1.283637
 H    2.762745    0.153009   -0.969268
 H    3.428779   -0.043453    0.653760
 H    2.547803    1.427630    0.232976
 H   -2.244900    0.990014   -0.814055
}
memory 700MB
set_num_threads(8)
psi4_io.set_default_path("/home/daniele/PSI4_sctatch/Psi4-1butanol_3D")
set freeze_core True
E, wfn = energy('wb97x-d/6-311+G*',return_wfn=True)
oeprop(wfn,"WIBERG_LOWDIN_INDICES")
clean()
