molecule { 
0 1
 O   -2.315736    0.378481   -0.533314
 C    0.055660    0.028259   -0.379742
 C    1.271565   -0.558780    0.389690
 C   -1.311998   -0.208822    0.297809
 C    2.584836    0.222556    0.178054
 H    0.174203    1.114986   -0.484885
 H    0.028705   -0.375100   -1.400399
 H    1.412172   -1.611091    0.110342
 H    1.056096   -0.563043    1.466619
 H   -1.488756   -1.284314    0.424626
 H   -1.322100    0.239616    1.299343
 H    2.867857    0.238058   -0.879943
 H    3.405757   -0.239218    0.736848
 H    2.490209    1.258863    0.520108
 H   -3.183395    0.238459   -0.109735
}
set optking { 
  frozen_dihedral = ("
    4 2 3 5
    2 4 1 15
    3 2 4 1
    12 5 3 2
  ")
}
set {
  geom_maxiter 400
  g_convergence GAU_LOOSE
  dynamic_level 1
}
memory 700MB
set_num_threads(8)
psi4_io.set_default_path("/home/daniele/PSI4_sctatch/Psi4-1butanol_3D")
for _ in range(1):
  try:
    set opt_coordinates both
    optimize('wb97x-d/6-311G')
    break
  except OptimizationConvergenceError:
    break
  else:
    try:
      set opt_coordinates cartesian
      optimize('wb97x-d/6-311G')
      break
    except OptimizationConvergenceError:
      pass
clean()
