molecule { 
0 1
 O   -1.744360    0.278817    0.773760
 C    0.042025   -0.174590   -0.810022
 C    0.959762    0.021140    0.400596
 C   -1.429408   -0.412083   -0.457730
 C    2.414111    0.257102   -0.016317
 H    0.124881    0.718546   -1.438568
 H    0.393617   -1.014142   -1.417225
 H    0.902294   -0.856720    1.051656
 H    0.591209    0.859541    0.989136
 H   -2.073628   -0.069723   -1.274617
 H   -1.600872   -1.486890   -0.317751
 H    2.805704   -0.588320   -0.588119
 H    3.055055    0.396716    0.856173
 H    2.501096    1.149688   -0.641208
 H   -2.667885    0.138718    1.019755
}
memory 700MB
set_num_threads(8)
psi4_io.set_default_path("/home/daniele/PSI4_sctatch/Psi4-1butanol_3D")
set freeze_core True
E, wfn = energy('wb97x-d/6-311+G*',return_wfn=True)
oeprop(wfn,"WIBERG_LOWDIN_INDICES")
clean()
