molecule { 
0 1
 O   -1.825837    0.488467    0.629518
 C    0.025689   -0.115994   -0.760273
 C    1.011312   -0.160579    0.409878
 C   -1.396756   -0.469763   -0.365349
 C    2.437513    0.203384   -0.010284
 H    0.025380    0.885795   -1.199670
 H    0.347059   -0.811125   -1.543500
 H    1.003048   -1.165528    0.846719
 H    0.660129    0.520255    1.186201
 H   -2.050951   -0.431458   -1.244301
 H   -1.426206   -1.487105    0.045848
 H    2.811987   -0.485250   -0.772115
 H    3.122399    0.167994    0.839029
 H    2.473186    1.212782   -0.426943
 H   -2.728176    0.306149    0.922506
}
memory 700MB
set_num_threads(8)
psi4_io.set_default_path("/home/daniele/PSI4_sctatch/Psi4-1butanol_3D")
set freeze_core True
E, wfn = energy('wb97x-d/6-311+G*',return_wfn=True)
oeprop(wfn,"WIBERG_LOWDIN_INDICES")
clean()
