molecule { 
0 1
 O   -1.962509   -0.730662    1.251968
 C   -0.182482    0.241071   -0.135855
 C    1.293546    0.174341   -0.536878
 C   -0.561161   -0.810281    0.897785
 C    1.671969    1.235274   -1.572638
 H   -0.422804    1.229204    0.267171
 H   -0.808266    0.105048   -1.025931
 H    1.519989   -0.821888   -0.934727
 H    1.917465    0.296886    0.355407
 H   -0.305626   -1.812498    0.532383
 H   -0.009886   -0.643587    1.823678
 H    1.083903    1.116422   -2.486336
 H    2.727301    1.170041   -1.841582
 H    1.484600    2.240906   -1.187095
 H   -2.495674   -1.290962    0.672877
}
memory 700MB
set_num_threads(8)
psi4_io.set_default_path("/home/daniele/PSI4_sctatch/Psi4-1butanol_3D")
set freeze_core True
E, wfn = energy('wb97x-d/6-311+G*',return_wfn=True)
oeprop(wfn,"WIBERG_LOWDIN_INDICES")
clean()
