molecule { 
0 1
 O   -2.161505    0.203292   -0.693025
 C   -0.068349    0.656242    0.352459
 C    1.280930    0.157866    0.888674
 C   -0.947086   -0.434147   -0.232845
 C    2.176200   -0.516845   -0.156990
 H   -0.626777    1.147687    1.152044
 H    0.096810    1.406863   -0.425752
 H    1.102560   -0.542187    1.712604
 H    1.814027    1.007725    1.322180
 H   -0.443910   -0.927457   -1.071228
 H   -1.166296   -1.190223    0.532227
 H    1.699723   -1.393278   -0.599116
 H    3.120656   -0.837918    0.285037
 H    2.404636    0.175873   -0.970925
 H   -2.769617   -0.443607   -1.074521
}
memory 700MB
set_num_threads(8)
psi4_io.set_default_path("/home/daniele/PSI4_sctatch/Psi4-1butanol_3D")
set freeze_core True
E, wfn = energy('wb97x-d/6-311+G*',return_wfn=True)
oeprop(wfn,"WIBERG_LOWDIN_INDICES")
clean()
