molecule { 
0 1
 O   -2.299406    0.356774   -0.548740
 C    0.063947    0.213505   -0.227895
 C    1.235820   -0.413146    0.532501
 C   -1.283855   -0.296602    0.245933
 C    2.591885    0.109460    0.052031
 H    0.082187    1.300491   -0.114254
 H    0.156379    0.003668   -1.296644
 H    1.204067   -1.501918    0.418726
 H    1.126266   -0.210158    1.603159
 H   -1.335628   -1.385529    0.120933
 H   -1.417205   -0.066716    1.310536
 H    2.738233   -0.108728   -1.008134
 H    3.413771   -0.347050    0.606509
 H    2.658308    1.192004    0.181123
 H   -3.183738    0.067028   -0.287759
}
memory 700MB
set_num_threads(8)
psi4_io.set_default_path("/home/daniele/PSI4_sctatch/Psi4-1butanol_3D")
set freeze_core True
E, wfn = energy('wb97x-d/6-311+G*',return_wfn=True)
oeprop(wfn,"WIBERG_LOWDIN_INDICES")
clean()
