molecule { 
0 1
 O   -2.276904    0.381012   -0.591236
 C    0.055015    0.374633   -0.067726
 C    1.224930   -0.309847    0.657591
 C   -1.264486   -0.345333    0.140992
 C    2.566086   -0.104032   -0.051821
 H   -0.050455    1.412553    0.254004
 H    0.248555    0.398598   -1.143917
 H    1.030930   -1.387199    0.720199
 H    1.286926    0.047538    1.689054
 H   -1.182710   -1.374479   -0.230639
 H   -1.509865   -0.385753    1.209957
 H    2.530307   -0.510380   -1.064854
 H    3.381182   -0.594421    0.483696
 H    2.807371    0.958521   -0.130984
 H   -3.144144   -0.032808   -0.488332
}
memory 700MB
set_num_threads(8)
psi4_io.set_default_path("/home/daniele/PSI4_sctatch/Psi4-1butanol_3D")
set freeze_core True
E, wfn = energy('wb97x-d/6-311+G*',return_wfn=True)
oeprop(wfn,"WIBERG_LOWDIN_INDICES")
clean()
