molecule { 
0 1
 O   -2.219580    0.457907   -0.456134
 C    0.045797   -0.290882   -0.586448
 C    1.312914   -0.748046    0.157192
 C   -1.093715    0.055491    0.355832
 C    2.256078    0.406815    0.511811
 H    0.263679    0.578174   -1.211321
 H   -0.311424   -1.078424   -1.253685
 H    1.856407   -1.461161   -0.467908
 H    1.034085   -1.293802    1.064801
 H   -1.349429   -0.823454    0.960433
 H   -0.796800    0.864647    1.035017
 H    2.583532    0.923735   -0.392553
 H    3.143046    0.049779    1.038435
 H    1.762106    1.142256    1.151670
 H   -2.976855    0.696678    0.094477
}
memory 700MB
set_num_threads(8)
psi4_io.set_default_path("/home/daniele/PSI4_sctatch/Psi4-1butanol_3D")
set freeze_core True
E, wfn = energy('wb97x-d/6-311+G*',return_wfn=True)
oeprop(wfn,"WIBERG_LOWDIN_INDICES")
clean()
