molecule { 
0 1
 O   -2.288828    0.351971   -0.594378
 C    0.068246    0.211042   -0.228936
 C    1.225539   -0.406471    0.560777
 C   -1.288487   -0.291810    0.226950
 C    2.590881    0.105490    0.095200
 H    0.085551    1.299444   -0.129460
 H    0.179923   -0.013029   -1.292984
 H    1.193001   -1.496803    0.463205
 H    1.098464   -0.186852    1.626190
 H   -1.339202   -1.382184    0.115159
 H   -1.440770   -0.047978    1.285879
 H    2.754548   -0.129623   -0.958785
 H    3.402044   -0.344198    0.670615
 H    2.657908    1.189772    0.208524
 H   -3.178373    0.070836   -0.342102
}
memory 700MB
set_num_threads(8)
psi4_io.set_default_path("/home/daniele/PSI4_sctatch/Psi4-1butanol_3D")
set freeze_core True
E, wfn = energy('wb97x-d/6-311+G*',return_wfn=True)
oeprop(wfn,"WIBERG_LOWDIN_INDICES")
clean()
