molecule { 
0 1
 O   -2.339045    0.422659   -0.463708
 C    0.042165    0.239022   -0.194077
 C    1.249069   -0.406395    0.534189
 C   -1.336319   -0.249064    0.303232
 C    2.618864    0.092864    0.031183
 H    0.080556    1.330396   -0.079038
 H    0.107674    0.037251   -1.271405
 H    1.204179   -1.497636    0.420258
 H    1.173934   -0.209736    1.611790
 H   -1.411461   -1.337703    0.183053
 H   -1.456139   -0.036684    1.372637
 H    2.751227   -0.119834   -1.035118
 H    3.433553   -0.398325    0.573837
 H    2.724913    1.173041    0.178923
 H   -3.118095   -0.160948   -0.530335
}
set optking { 
  frozen_dihedral = ("
    2 4 1 15
    4 2 3 5
    3 2 4 1
    12 5 3 2
  ")
}
set {
  geom_maxiter 400
  g_convergence GAU_LOOSE
  dynamic_level 1
}
memory 700MB
set_num_threads(8)
psi4_io.set_default_path("/home/daniele/PSI4_sctatch/Psi4-1butanol_3D")
for _ in range(1):
  try:
    set opt_coordinates both
    optimize('wb97x-d/6-311G')
    break
  except OptimizationConvergenceError:
    break
  else:
    try:
      set opt_coordinates cartesian
      optimize('wb97x-d/6-311G')
      break
    except OptimizationConvergenceError:
      pass
clean()
