molecule { 
0 1
 O   -2.343852    0.408954   -0.443919
 C    0.070733    0.222884   -0.227788
 C    1.245522   -0.438171    0.496791
 C   -1.280034   -0.246554    0.289417
 C    2.601684    0.041930   -0.025424
 H    0.125957    1.309379   -0.121316
 H    0.125740    0.007016   -1.298971
 H    1.177033   -1.525836    0.385983
 H    1.174405   -0.231836    1.569991
 H   -1.353855   -1.336601    0.201047
 H   -1.392795    0.013389    1.344824
 H    2.709318   -0.181111   -1.089292
 H    3.425519   -0.438976    0.504777
 H    2.704963    1.121934    0.099852
 H   -2.906743   -0.227950   -0.897880
}
memory 700MB
set_num_threads(8)
psi4_io.set_default_path("/home/daniele/PSI4_sctatch/Psi4-1butanol_3D")
set freeze_core True
E, wfn = energy('wb97x-d/6-311+G*',return_wfn=True)
oeprop(wfn,"WIBERG_LOWDIN_INDICES")
clean()
