molecule { 
0 1
 O   -2.184448    0.178721   -0.571090
 C   -0.099601    0.642312    0.473093
 C    1.354846    0.253049    0.818772
 C   -0.864980   -0.373863   -0.355320
 C    2.076762   -0.628251   -0.208916
 H   -0.664203    0.836845    1.386070
 H   -0.107943    1.574798   -0.098419
 H    1.357765   -0.283133    1.773573
 H    1.931633    1.164958    0.986332
 H   -0.363284   -0.539495   -1.314190
 H   -0.927584   -1.334851    0.172846
 H    1.562196   -1.579009   -0.357334
 H    3.092155   -0.849162    0.123920
 H    2.146801   -0.133700   -1.181270
 H   -2.733227   -0.422595   -1.091669
}
memory 700MB
set_num_threads(8)
psi4_io.set_default_path("/home/daniele/PSI4_sctatch/Psi4-1butanol_3D")
set freeze_core True
E, wfn = energy('wb97x-d/6-311+G*',return_wfn=True)
oeprop(wfn,"WIBERG_LOWDIN_INDICES")
clean()
