molecule { 
0 1
O            0.693690146401     0.037164741073     0.012584016425
C           -0.729241010977     0.012776814693     0.004319836608
H           -1.136719304926    -0.738656445925     0.691357061048
H           -1.136707737576    -0.166885778708    -0.997879410183
H           -1.053310700057     0.998092894950     0.337826683955
H            1.000319507828    -0.834513424482    -0.282457361871
}
memory 700MB
set_num_threads(1)
psi4_io.set_default_path("/scratch/bdw2292")
set freeze_core True
set PROPERTIES_ORIGIN ["COM"]
E, wfn = properties('mp2/6-311++G(2d,2p)',properties=['dipole'],return_wfn=True)
oeprop(wfn,"GRID_ESP","WIBERG_LOWDIN_INDICES")
clean()
