molecule { 
0 1
 O    0.707900    0.000000    0.000000
 C   -0.707900    0.000000    0.000000
 H   -1.073200   -0.769000    0.685200
 H   -1.073100   -0.194700   -1.011300
 H   -1.063200    0.978600    0.331200
 H    0.993600   -0.880400   -0.298000
}
set {
 geom_maxiter 400
}
memory 700MB
set_num_threads(1)
psi4_io.set_default_path("/scratch/bdw2292")
optimize('wb97x-d/6-31G*')
clean()
