molecule { 
0 1
 C    0.743072    0.049654   -0.027646
 C   -0.743071   -0.049696    0.027594
 C    1.439457   -0.329093   -1.180959
 C   -1.369147   -1.295168    0.151505
 C    1.466246    0.523327    1.072893
 C   -1.536556    1.100899   -0.043477
 C    2.828436   -0.237459   -1.232423
 C   -2.758057   -1.388379    0.201987
 C    2.855046    0.617430    1.021091
 C   -2.925425    1.008444    0.009386
 C    3.539626    0.236653   -0.131610
 C   -3.539627   -0.236616    0.131648
 H    0.885674   -0.692383   -2.036811
 H   -0.760981   -2.188324    0.211042
 H    0.933875    0.813984    1.969128
 H   -1.058564    2.066652   -0.143395
 H    3.353403   -0.532918   -2.130974
 H   -3.228274   -2.357807    0.298872
 H    3.401047    0.984500    1.879826
 H   -3.526176    1.906290   -0.047642
 H    4.617993    0.308760   -0.171699
 H   -4.617995   -0.308694    0.171766
}
memory 700MB
set_num_threads(3)
psi4_io.set_default_path("/home/daniele/PSI4_sctatch/Psi4-biphenyl")
set freeze_core True
E, wfn = energy('wb97x-d/6-311+G*',return_wfn=True)
oeprop(wfn,"WIBERG_LOWDIN_INDICES")
clean()
