molecule { 
0 1
 C    0.740861    0.049586   -0.027507
 C   -0.740862   -0.049599    0.027454
 C    1.445031    0.798706    0.924588
 C   -1.526834    1.084972    0.269369
 C    1.466331   -0.603824   -1.032623
 C   -1.384529   -1.279860   -0.161375
 C    2.833067    0.892980    0.872478
 C   -2.914928    0.992069    0.322385
 C    2.854592   -0.512246   -1.083487
 C   -2.772731   -1.372797   -0.111335
 C    3.542981    0.237174   -0.131434
 C   -3.542980   -0.237160    0.131478
 H    0.901579    1.289893    1.721179
 H   -1.046478    2.046718    0.393717
 H    0.935838   -1.166895   -1.789388
 H   -0.790941   -2.169725   -0.325565
 H    3.360207    1.470546    1.620014
 H   -3.505707    1.879961    0.503754
 H    3.397345   -1.018197   -1.870697
 H   -3.251842   -2.332303   -0.252990
 H    4.621269    0.309348   -0.171430
 H   -4.621267   -0.309345    0.171499
}
memory 700MB
set_num_threads(3)
psi4_io.set_default_path("/home/daniele/PSI4_sctatch/Psi4-biphenyl")
set freeze_core True
E, wfn = energy('wb97x-d/6-311+G*',return_wfn=True)
oeprop(wfn,"WIBERG_LOWDIN_INDICES")
clean()
