molecule { 
0 1
 C    0.740869    0.049551   -0.027528
 C   -0.740869   -0.049540    0.027542
 C    1.364426    1.072751   -0.754014
 C   -1.397529   -0.309426    1.237816
 C    1.546939   -0.877989    0.645841
 C   -1.513838    0.114678   -1.129650
 C    2.752560    1.164980   -0.806955
 C   -2.785572   -0.403853    1.289371
 C    2.935094   -0.784449    0.595674
 C   -2.902082    0.023313   -1.078100
 C    3.542971    0.237043   -0.131604
 C   -3.542970   -0.237054    0.131604
 H    0.756077    1.810999   -1.260044
 H   -0.816626   -0.415180    2.144755
 H    1.081278   -1.688100    1.191780
 H   -1.020729    0.292276   -2.076470
 H    3.216257    1.965594   -1.367551
 H   -3.275548   -0.598649    2.233957
 H    3.541310   -1.513459    1.116552
 H   -3.482016    0.146487   -1.982959
 H    4.621260    0.309188   -0.171654
 H   -4.621259   -0.309211    0.171657
}
memory 700MB
set_num_threads(3)
psi4_io.set_default_path("/home/daniele/PSI4_sctatch/Psi4-biphenyl")
set freeze_core True
E, wfn = energy('wb97x-d/6-311+G*',return_wfn=True)
oeprop(wfn,"WIBERG_LOWDIN_INDICES")
clean()
