molecule { 
0 1
 C    0.745973    0.049943   -0.027664
 C   -0.745973   -0.049928    0.027684
 C    1.441374    1.023998    0.706047
 C   -1.528549    0.983530    0.566433
 C    1.508762   -0.826472   -0.815545
 C   -1.421588   -1.181033   -0.456918
 C    2.828480    1.118094    0.655311
 C   -2.915757    0.891865    0.618703
 C    2.895972   -0.734829   -0.867829
 C   -2.808695   -1.275145   -0.406205
 C    3.565690    0.238727   -0.132376
 C   -3.565689   -0.238748    0.132362
 H    0.906091    1.703142    1.352902
 H   -1.062086    1.889387    0.924234
 H    1.022351   -1.574006   -1.424467
 H   -0.866359   -2.018478   -0.852639
 H    3.332813    1.875944    1.239570
 H   -3.488542    1.710305    1.033575
 H    3.452172   -1.421668   -1.491479
 H   -3.296444   -2.164609   -0.781706
 H    4.643795    0.310905   -0.172412
 H   -4.643794   -0.310938    0.172382
}
memory 700MB
set_num_threads(3)
psi4_io.set_default_path("/home/daniele/PSI4_sctatch/Psi4-biphenyl")
set freeze_core True
E, wfn = energy('wb97x-d/6-311+G*',return_wfn=True)
oeprop(wfn,"WIBERG_LOWDIN_INDICES")
clean()
