molecule { 
0 1
 C    0.745522    0.049855   -0.027577
 C   -0.745505   -0.049991    0.027770
 C    1.418899    1.190063    0.438072
 C   -1.505913    0.813398    0.831939
 C    1.528501   -0.992767   -0.547421
 C   -1.441472   -1.010814   -0.722428
 C    2.806055    1.284133    0.387261
 C   -2.893183    0.721762    0.884052
 C    2.915747   -0.900948   -0.599799
 C   -2.828633   -1.104827   -0.671681
 C    3.564082    0.238706   -0.132417
 C   -3.564096   -0.238592    0.132261
 H    0.860854    2.034083    0.816004
 H   -1.016425    1.547821    1.454546
 H    1.061460   -1.905456   -0.887257
 H   -0.905869   -1.676617   -1.383074
 H    3.293019    2.180549    0.746946
 H   -3.448433    1.397381    1.520686
 H    3.489848   -1.726261   -0.998965
 H   -3.334464   -1.851436   -1.268990
 H    4.642193    0.310940   -0.172515
 H   -4.642217   -0.310736    0.172231
}
memory 700MB
set_num_threads(3)
psi4_io.set_default_path("/home/daniele/PSI4_sctatch/Psi4-biphenyl")
set freeze_core True
E, wfn = energy('wb97x-d/6-311+G*',return_wfn=True)
oeprop(wfn,"WIBERG_LOWDIN_INDICES")
clean()
