molecule { 
0 1
 C    0.739702    0.049570   -0.027481
 C   -0.739778   -0.049496    0.027417
 C    1.373499    1.245399   -0.487242
 C   -1.428090    0.004148    1.278962
 C    1.559457   -1.048776    0.378265
 C   -1.505020   -0.200440   -1.170359
 C    2.778341    1.330861   -0.536632
 C   -2.832557   -0.090610    1.321816
 C    2.962899   -0.946168    0.322774
 C   -2.908950   -0.293338   -1.109348
 C    3.570779    0.239190   -0.133137
 C   -3.570904   -0.238694    0.132139
 H    0.771261    2.096283   -0.801360
 H   -0.867997    0.118973    2.205495
 H    1.100888   -1.970673    0.732089
 H   -1.004291   -0.244479   -2.136114
 H    3.253695    2.244947   -0.888063
 H   -3.349659   -0.048872    2.278801
 H    3.580549   -1.787010    0.633391
 H   -3.484847   -0.408112   -2.025963
 H    4.656296    0.311890   -0.173793
 H   -4.656473   -0.311149    0.172239
}
set optking { 
  frozen_dihedral = ("
    3 1 2 4
    3 1 2 6
    5 1 2 4
    5 1 2 6
  ")
}
set {
  geom_maxiter 400
  g_convergence GAU_LOOSE
  dynamic_level 1
}
memory 700MB
set_num_threads(3)
psi4_io.set_default_path("/home/daniele/PSI4_sctatch/Psi4-biphenyl")
for _ in range(1):
  try:
    set opt_coordinates both
    optimize('wb97x-d/6-311G')
    break
  except OptimizationConvergenceError:
    break
  else:
    try:
      set opt_coordinates cartesian
      optimize('wb97x-d/6-311G')
      break
    except OptimizationConvergenceError:
      pass
clean()
