molecule { 
0 1
 C    0.745510    0.049899   -0.027717
 C   -0.745516   -0.049820    0.027701
 C    1.400415    0.587764   -1.146709
 C   -1.388052   -0.872250    0.966370
 C    1.546978   -0.390669    1.037131
 C   -1.559347    0.675218   -0.856804
 C    2.787538    0.681292   -1.199383
 C   -2.775177   -0.965722    1.019133
 C    2.934290   -0.298724    0.986699
 C   -2.946646    0.583088   -0.806438
 C    3.564102    0.238298   -0.132469
 C   -3.564098   -0.238364    0.132484
 H    0.831412    0.909589   -2.006524
 H   -0.806755   -1.476853    1.646932
 H    1.090889   -0.781057    1.935013
 H   -1.115554    1.348423   -1.575456
 H    3.260902    1.093408   -2.080379
 H   -3.238201   -1.615470    1.749546
 H    3.522016   -0.639929    1.828261
 H   -3.544706    1.161856   -1.497394
 H    4.642225    0.310361   -0.172540
 H   -4.642216   -0.310479    0.172566
}
memory 700MB
set_num_threads(3)
psi4_io.set_default_path("/home/daniele/PSI4_sctatch/Psi4-biphenyl")
set freeze_core True
E, wfn = energy('wb97x-d/6-311+G*',return_wfn=True)
oeprop(wfn,"WIBERG_LOWDIN_INDICES")
clean()
