molecule { 
0 1
 C    0.743243    0.049740   -0.027626
 C   -0.743247   -0.049638    0.027680
 C    1.416449   -0.024039   -1.252241
 C   -1.362247   -1.228470    0.458393
 C    1.489402    0.218299    1.144194
 C   -1.543609    1.034286   -0.350306
 C    2.805314    0.069714   -1.304305
 C   -2.751154   -1.321292    0.511056
 C    2.878427    0.310134    1.092928
 C   -2.932580    0.941362   -0.299722
 C    3.539754    0.236552   -0.131648
 C   -3.539750   -0.236631    0.131608
 H    0.845275   -0.157947   -2.161609
 H   -0.748803   -2.071424    0.748626
 H    0.974345    0.279605    2.093972
 H   -1.070820    1.949862   -0.680928
 H    3.312475    0.010041   -2.257994
 H   -3.216010   -2.239220    0.845142
 H    3.442303    0.441345    2.006779
 H   -3.538763    1.787666   -0.594014
 H    4.618126    0.308597   -0.171768
 H   -4.618120   -0.308733    0.171684
}
memory 700MB
set_num_threads(3)
psi4_io.set_default_path("/home/daniele/PSI4_sctatch/Psi4-biphenyl")
set freeze_core True
E, wfn = energy('wb97x-d/6-311+G*',return_wfn=True)
oeprop(wfn,"WIBERG_LOWDIN_INDICES")
clean()
