molecule { 
0 1
 C    0.740825    0.049534   -0.027544
 C   -0.740826   -0.049515    0.027550
 C    1.398030    0.288698   -1.241609
 C   -1.363588   -1.084833    0.737013
 C    1.511955   -0.094204    1.133384
 C   -1.546398    0.890354   -0.628784
 C    2.786159    0.382569   -1.293316
 C   -2.751785   -1.177204    0.789675
 C    2.900240   -0.002544    1.081820
 C   -2.934614    0.797164   -0.578185
 C    3.542182    0.236722   -0.131746
 C   -3.542182   -0.236737    0.131742
 H    0.817025    0.379832   -2.150121
 H   -0.754258   -1.830795    1.230497
 H    1.017012   -0.257247    2.081918
 H   -1.079780    1.708226   -1.162281
 H    3.277164    0.560934   -2.240619
 H   -3.215464   -1.987203    1.336653
 H    3.479296   -0.109416    1.989319
 H   -3.540994    1.535651   -1.085358
 H    4.620483    0.308775   -0.171855
 H   -4.620481   -0.308804    0.171848
}
memory 700MB
set_num_threads(3)
psi4_io.set_default_path("/home/daniele/PSI4_sctatch/Psi4-biphenyl")
set freeze_core True
E, wfn = energy('wb97x-d/6-311+G*',return_wfn=True)
oeprop(wfn,"WIBERG_LOWDIN_INDICES")
clean()
