molecule { 
0 1
 C    0.743075    0.049716   -0.027562
 C   -0.743070   -0.049769    0.027614
 C    1.361852    1.221353   -0.478015
 C   -1.415044    0.002988    1.254061
 C    1.543886   -1.026865    0.370156
 C   -1.490688   -0.197517   -1.146166
 C    2.750710    1.314189   -0.530828
 C   -2.803851   -0.091156    1.305977
 C    2.932816   -0.933699    0.319820
 C   -2.879681   -0.289288   -1.095013
 C    3.539664    0.236976   -0.131415
 C   -3.539667   -0.236935    0.131380
 H    0.748244    2.058913   -0.783163
 H   -0.842971    0.121237    2.165042
 H    1.071479   -1.937154    0.715620
 H   -0.976747   -0.243063   -2.097443
 H    3.215244    2.226522   -0.880309
 H   -3.309907   -0.047862    2.261129
 H    3.539209   -1.774323    0.629530
 H   -3.444551   -0.404253   -2.010429
 H    4.618024    0.309186   -0.171461
 H   -4.618032   -0.309108    0.171391
}
memory 700MB
set_num_threads(3)
psi4_io.set_default_path("/home/daniele/PSI4_sctatch/Psi4-biphenyl")
set freeze_core True
E, wfn = energy('wb97x-d/6-311+G*',return_wfn=True)
oeprop(wfn,"WIBERG_LOWDIN_INDICES")
clean()
