molecule { 
0 1
 C    0.756348    0.050912   -0.028505
 C   -0.756476   -0.050377    0.027675
 C    1.430556    0.601808   -1.174081
 C   -1.417862   -0.892643    0.988757
 C    1.580438   -0.399857    1.061597
 C   -1.593387    0.691526   -0.877664
 C    2.835881    0.691951   -1.215833
 C   -2.823337   -0.978714    1.033359
 C    2.984478   -0.302444    0.998955
 C   -2.997232    0.589770   -0.817527
 C    3.611109    0.241456   -0.134439
 C   -3.611188   -0.241317    0.134114
 H    0.876740    0.951221   -2.041859
 H   -0.852922   -1.493826    1.696676
 H    1.143410   -0.815114    1.966163
 H   -1.167506    1.358843   -1.622756
 H    3.325444    1.111393   -2.093199
 H   -3.302840   -1.623162    1.768343
 H    3.588687   -0.648882    1.835860
 H   -3.611472    1.160966   -1.511701
 H    4.696545    0.313819   -0.174722
 H   -4.696617   -0.313889    0.174684
}
set optking { 
  frozen_dihedral = ("
    3 1 2 4
    3 1 2 6
    5 1 2 4
    5 1 2 6
  ")
}
set {
  geom_maxiter 400
  g_convergence GAU_LOOSE
  dynamic_level 1
}
memory 700MB
set_num_threads(3)
psi4_io.set_default_path("/home/daniele/PSI4_sctatch/Psi4-biphenyl")
for _ in range(1):
  try:
    set opt_coordinates both
    optimize('wb97x-d/6-311G')
    break
  except OptimizationConvergenceError:
    break
  else:
    try:
      set opt_coordinates cartesian
      optimize('wb97x-d/6-311G')
      break
    except OptimizationConvergenceError:
      pass
clean()
