molecule { 
0 1
 C    0.744380    0.049716   -0.027649
 C   -0.744371   -0.049827    0.027704
 C    1.389533    0.855463   -0.979019
 C   -1.400382   -0.606426    1.136940
 C    1.559534   -0.658301    0.869454
 C   -1.548680    0.409276   -1.027222
 C    2.776679    0.947675   -1.032831
 C   -2.787425   -0.701250    1.188962
 C    2.946778   -0.565098    0.819934
 C   -2.936040    0.318746   -0.976142
 C    3.567097    0.238396   -0.132744
 C   -3.567102   -0.238383    0.132622
 H    0.811115    1.439029   -1.679550
 H   -0.832169   -0.955539    1.986126
 H    1.117261   -1.310020    1.608046
 H   -1.096201    0.826588   -1.914336
 H    3.239013    1.580899   -1.777267
 H   -3.258550   -1.132990    2.061061
 H    3.543005   -1.127545    1.524972
 H   -3.523480    0.679754   -1.808907
 H    4.645533    0.310426   -0.172938
 H   -4.645540   -0.310447    0.172701
}
memory 700MB
set_num_threads(3)
psi4_io.set_default_path("/home/daniele/PSI4_sctatch/Psi4-biphenyl")
set freeze_core True
E, wfn = energy('wb97x-d/6-311+G*',return_wfn=True)
oeprop(wfn,"WIBERG_LOWDIN_INDICES")
clean()
