molecule { 
0 1
 C    0.757271    0.050765   -0.028393
 C   -0.757367   -0.050521    0.027964
 C    1.420370    0.876469   -1.003254
 C   -1.431574   -0.620949    1.164569
 C    1.594511   -0.674593    0.890763
 C   -1.583532    0.419777   -1.052913
 C    2.825829    0.962444   -1.047696
 C   -2.836878   -0.711099    1.206168
 C    2.998385   -0.572830    0.830474
 C   -2.987541    0.322123   -0.990212
 C    3.613010    0.241599   -0.134709
 C   -3.613129   -0.241344    0.134079
 H    0.857631    1.464670   -1.723410
 H   -0.878582   -0.986871    2.025714
 H    1.169906   -1.328674    1.647751
 H   -1.149157    0.851531   -1.950730
 H    3.305882    1.594212   -1.793240
 H   -3.325650   -1.145573    2.076740
 H    3.612097   -1.131475    1.535284
 H   -3.592565    0.683465   -1.820134
 H    4.698363    0.314084   -0.175274
 H   -4.698481   -0.313770    0.174355
}
set optking { 
  frozen_dihedral = ("
    3 1 2 4
    3 1 2 6
    5 1 2 4
    5 1 2 6
  ")
}
set {
  geom_maxiter 400
  g_convergence GAU_LOOSE
  dynamic_level 1
}
memory 700MB
set_num_threads(3)
psi4_io.set_default_path("/home/daniele/PSI4_sctatch/Psi4-biphenyl")
for _ in range(1):
  try:
    set opt_coordinates both
    optimize('wb97x-d/6-311G')
    break
  except OptimizationConvergenceError:
    break
  else:
    try:
      set opt_coordinates cartesian
      optimize('wb97x-d/6-311G')
      break
    except OptimizationConvergenceError:
      pass
clean()
