molecule { 
0 1
 C    0.740825    0.049620   -0.027524
 C   -0.740832   -0.049552    0.027466
 C    1.382825    1.283560    0.140701
 C   -1.464028    0.586877    1.044820
 C    1.527167   -1.088703   -0.248761
 C   -1.445970   -0.781677   -0.936816
 C    2.771064    1.376558    0.090293
 C   -2.852310    0.494919    1.095978
 C    2.915336   -0.995853   -0.301371
 C   -2.834084   -0.875681   -0.884848
 C    3.542185    0.237140   -0.131474
 C   -3.542178   -0.237196    0.131527
 H    0.787586    2.174958    0.290251
 H   -0.931396    1.137499    1.809270
 H    1.046476   -2.052127   -0.358388
 H   -0.902672   -1.260260   -1.741212
 H    3.249466    2.338700    0.215589
 H   -3.393853    0.987229    1.892625
 H    3.506980   -1.886368   -0.466370
 H   -3.362581   -1.439677   -1.641739
 H    4.620479    0.309318   -0.171482
 H   -4.620469   -0.309419    0.171578
}
memory 700MB
set_num_threads(3)
psi4_io.set_default_path("/home/daniele/PSI4_sctatch/Psi4-biphenyl")
set freeze_core True
E, wfn = energy('wb97x-d/6-311+G*',return_wfn=True)
oeprop(wfn,"WIBERG_LOWDIN_INDICES")
clean()
