%RWF=/home/daniele/PSI4_sctatch/Gau-butane/,100GB
%Nosave
%Chk=butane-opt_1.chk
%Mem=700MB
%Nproc=8
#P opt=(ModRedundant,maxcycles=400,Loose) MP2/6-31G* MaxDisk=100GB 

butane Gaussian OPT Calculation on daniele-Precision-5750

0 1
 C   -0.405900   -0.631200    0.331100
 C    0.392700    0.516300   -0.295100
 C   -1.870300   -0.336400   -0.025800
 C    1.874200    0.331600   -0.005200
 H   -0.354400   -0.625400    1.420700
 H   -0.160400   -1.589700   -0.122500
 H    0.102100    1.487200    0.145100
 H    0.184400    0.562800   -1.364100
 H   -1.872700   -0.219000   -1.136400
 H   -2.087900    0.646300    0.469700
 H   -2.540800   -1.138200    0.303200
 H    2.367800   -0.351900   -0.697800
 H    1.980700    0.021600    1.065200
 H    2.390500    1.325800   -0.088000

