%RWF=/home/daniele/PSI4_sctatch/Gau-1butanol_3D/,100GB
%Nosave
%Chk=1butanol_3D-dma_temp.chk
%Mem=700MB
%Nproc=8
#P MP2/6-311G** Sp Density=MP2 MaxDisk=100GB 

1butanol_3D Gaussian SP Calculation on daniele-Precision-5750

0 1
 O   -2.282125    0.357666   -0.550407
 C    0.063966    0.214157   -0.228796
 C    1.226947   -0.413009    0.532554
 C   -1.284461   -0.291045    0.239116
 C    2.580165    0.105032    0.057625
 H    0.082904    1.303819   -0.115790
 H    0.157664    0.004349   -1.300110
 H    1.191603   -1.503378    0.418558
 H    1.113116   -0.210495    1.604504
 H   -1.336458   -1.383638    0.121034
 H   -1.418760   -0.066361    1.307673
 H    2.728927   -0.113539   -1.003599
 H    3.401822   -0.353803    0.614304
 H    2.649066    1.188768    0.187864
 H   -3.149302    0.040386   -0.249109



