molecule { 
0 1
 O   -2.584100    0.281700   -0.852300
 C   -0.286300    0.202400   -0.447400
 C    0.843000   -0.333500    0.401600
 C   -1.637300   -0.283000    0.010700
 C    2.132000    0.244300   -0.185000
 H   -0.292600    1.310600   -0.462800
 H   -0.088200   -0.131900   -1.486900
 H    0.913200   -1.436500    0.324900
 H    0.760400   -0.073500    1.455200
 H   -1.688700   -1.389200   -0.010300
 H   -1.858600    0.133400    1.017300
 H    1.980400    0.376300   -1.275200
 H    2.958800   -0.485900   -0.032500
 H    2.310600    1.197500    0.330200
 H   -3.462600    0.387200   -0.441400
}
set {
  geom_maxiter 400
  g_convergence GAU_LOOSE
  dynamic_level 1
}
memory 700MB
set_num_threads(8)
psi4_io.set_default_path("/home/daniele/PSI4_sctatch/Psi4-1butanol_3D")
for _ in range(1):
  try:
    set opt_coordinates both
    optimize('mp2/6-31G*')
    break
  except OptimizationConvergenceError:
    break
  else:
    try:
      set opt_coordinates cartesian
      optimize('mp2/6-31G*')
      break
    except OptimizationConvergenceError:
      pass
clean()
