%RWF=/scratch/bdw2292/Gau-aniline/,100GB
%Nosave
%Chk=aniline-dma_temp.chk
%Mem=700MB
%Nproc=1
#P MP2/6-311G** Sp Density=MP2 MaxDisk=100GB

aniline Gaussian SP Calculation on bme-nova.bme.utexas.edu

0 1
 N   -2.342609   -0.000176    0.116758
 C   -0.941853   -0.000051    0.010372
 C   -0.229074    1.205805    0.006176
 C   -0.228948   -1.205833    0.004992
 C    1.163021    1.202560   -0.028809
 C    1.163146   -1.202416   -0.029995
 C    1.869456    0.000114   -0.043521
 H   -0.772135    2.149032    0.022627
 H   -0.771914   -2.149128    0.020522
 H    1.697636    2.149339   -0.038157
 H    1.697860   -2.149132   -0.040274
 H    2.955348    0.000180   -0.071184
 H   -2.773091   -0.830644   -0.277406
 H   -2.773165    0.830672   -0.276516

$nbo bndidx $end

