molecule { 
0 1
C            0.000001138234    -0.000001519993     0.000000015027
H           -0.363156167621     0.553414948574    -0.865343939711
H           -0.363179981210    -1.026114404377    -0.046589349107
H           -0.363157803529     0.472721678739     0.911933417928
H            1.089480399602    -0.000004124634    -0.000000308039
}
memory 700MB
set_num_threads(1)
psi4_io.set_default_path("/scratch/bdw2292")
set freeze_core True
set PROPERTIES_ORIGIN ["COM"]
E, wfn = properties('mp2/6-311++G(2d,2p)',properties=['dipole'],return_wfn=True)
oeprop(wfn,"GRID_ESP","WIBERG_LOWDIN_INDICES")
clean()
