molecule { 
0 1
 C    1.065700   -0.025700   -0.070900
 H    0.701600    0.529100   -0.938400
 H    0.701600   -1.054300   -0.117600
 H    0.701600    0.448200    0.843300
 H    2.157900   -0.025700   -0.070900
}
memory 700MB
set_num_threads(1)
psi4_io.set_default_path("/scratch/bdw2292")
optimize('mp2/6-31G*')
clean()
