molecule { 
0 1
 C    2.536900    0.000000    0.000000
 H    3.073900    0.310000    0.000000
 H    2.000000   -0.310000    0.000000
 H    2.226900    0.536900    0.000000
 H    2.846900   -0.536900    0.000000
}
set {
 geom_maxiter 400
}
memory 700MB
set_num_threads(1)
psi4_io.set_default_path("/scratch/bdw2292")
optimize('wb97x-d/6-31G*')
clean()
