%RWF=/home/daniele/PSI4_sctatch/Gau-propbenzene/,100GB
%Nosave
%Chk=propbenzene-opt_1.chk
%Mem=700MB
%Nproc=8
#P opt=(ModRedundant,maxcycles=400,Loose) MP2/6-31G* MaxDisk=100GB 

propbenzene Gaussian OPT Calculation on daniele-Precision-5750

0 1
 C   -0.886900   -0.512700    0.583300
 C   -1.894500    0.074400   -0.372900
 C    0.497100   -0.083800    0.282600
 C   -3.261400   -0.438700    0.041300
 C    1.080300    1.045100    0.822200
 C    1.266900   -0.836800   -0.581400
 C    2.383600    1.405800    0.508700
 C    2.575000   -0.474600   -0.895900
 C    3.152100    0.653800   -0.354000
 H   -0.925400   -1.624400    0.456500
 H   -1.146000   -0.316900    1.632300
 H   -1.856700    1.167400   -0.434700
 H   -1.711900   -0.320800   -1.393500
 H   -3.444200   -0.258800    1.119900
 H   -4.066500    0.015800   -0.573000
 H   -3.218100   -1.554100   -0.093900
 H    0.474200    1.630400    1.497100
 H    0.816100   -1.725600   -1.009800
 H    2.827100    2.297900    0.942700
 H    3.167000   -1.081500   -1.579900
 H    4.172100    0.938400   -0.597700

