molecule { 
0 1
C -1.302096077875 -0.673333861299 0.636819004685
C -2.343461294995 -0.049480794049 -0.296270086997
C 0.095342047898 -0.229679734140 0.299640220140
C -3.764895229551 -0.491420750511 0.034837757444
C 0.613964900251 0.957472654540 0.828933947478
C 0.880357821093 -0.955921821987 -0.602779015560
C 1.886381120159 1.403820115093 0.474723809701
C 2.153723343444 -0.514777823393 -0.960955828331
C 2.659744432096 0.668801944489 -0.423961133845
H -1.368834228296 -1.766640623980 0.573400130633
H -1.537828196629 -0.403340001311 1.674171182649
H -2.263160568176 1.042353627848 -0.235228860334
H -2.096657242606 -0.320487752239 -1.330278859840
H -4.034229061611 -0.201318895315 1.055808169670
H -4.491995019544 -0.038128098046 -0.646406343211
H -3.863677767165 -1.578655369183 -0.042766758076
H 0.016631818081 1.532181379931 1.535390622921
H 0.491647702764 -1.883135477834 -1.021041487998
H 2.275805461132 2.324658601186 0.901943519557
H 2.752240868721 -1.095902766796 -1.658320853307
H 3.653226761049 1.013415648009 -0.699374156307
}
memory 700MB
set_num_threads(8)
psi4_io.set_default_path("/home/daniele/PSI4_sctatch/Psi4-propbenzene")
set freeze_core True
set PROPERTIES_ORIGIN ["COM"]
set cubeprop_tasks ['esp']
E, wfn = energy('mp2/6-311G**',properties=['dipole'],return_wfn=True)
cubeprop(wfn)
fchk(wfn, "propbenzene-dma.fchk")
clean()
