molecule { 
0 1
O            0.623442592277    -1.148810321344    -0.204080494062
N            0.737116854214     1.103895261379     0.103460803212
C           -1.453554290629     0.053453378925     0.078840133141
C            0.051403011636    -0.079859243555    -0.011455887265
H           -1.900046433314    -0.914034949753    -0.144498510562
H           -1.751573834820     0.361881520214     1.085463088582
H           -1.822380866773     0.800880240907    -0.628419451774
H            1.741406678851     1.034601282874     0.201668024762
H            0.291523402723     1.925628061735     0.484839076705
}
memory 700MB
set_num_threads(1)
psi4_io.set_default_path("/scratch/bdw2292")
set freeze_core True
E, wfn = energy('mp2/6-311++G(2d,2p)',return_wfn=True)
oeprop(wfn,"DIPOLE","GRID_ESP")
clean()
