molecule { 
0 1
O           -0.054496654631     0.038534940133     0.000000000000
H            0.873105012011     0.317390171806     0.000000000000
H           -0.008203555903    -0.928967635735     0.000000000000
}
memory 700MB
set_num_threads(1)
psi4_io.set_default_path("/scratch/bdw2292")
set freeze_core True
E, wfn = energy('mp2/6-311++G(2d,2p)',return_wfn=True)
oeprop(wfn,"DIPOLE","GRID_ESP")
clean()
