molecule { 
0 1
O           -0.054496654631     0.038534940133     0.000000000000
H            0.873105012011     0.317390171806     0.000000000000
H           -0.008203555903    -0.928967635735     0.000000000000
}
memory 700MB
set_num_threads(1)
psi4_io.set_default_path("/scratch/bdw2292")
set freeze_core True
set PROPERTIES_ORIGIN ["COM"]
E, wfn = properties('mp2/6-311++G(2d,2p)',properties=['dipole'],return_wfn=True)
oeprop(wfn,"GRID_ESP","WIBERG_LOWDIN_INDICES")
clean()
