%RWF=/scratch/bdw2292/Gau-MOLECULE0/,100GB
%Nosave
%Chk=MOLECULE0-opt-23-22-21-20-276.chk
%Mem=20GB
%Nproc=6
#P opt=(,maxcycle=400) wB97XD/6-31G* MaxDisk=100GB

MOLECULE0 Rotatable Bond Optimization on node37.bme.utexas.edu

0 1
 C   -3.293248   -6.220790   -7.080501
 C   -2.008146   -6.772132   -7.170433
 C   -1.089796   -6.600836   -6.114429
 C   -1.567016   -5.871088   -4.998176
 N   -2.791834   -5.340936   -4.893170
 C   -3.633519   -5.513356   -5.922729
 C    0.314059   -7.153587   -6.136225
 C    0.849870   -7.946287   -7.164775
 C    2.169859   -8.369156   -6.982633
 N    2.916568   -8.060662   -5.927698
 C    2.326939   -7.283026   -4.994629
 N    1.071623   -6.830245   -5.067592
 N    3.135179   -6.966429   -3.914662
 C    2.933511   -6.250970   -2.681278
 C    3.879791   -6.423820   -1.625018
 C    3.649232   -5.717389   -0.433978
 C    2.560439   -4.862977   -0.235241
 C    1.650552   -4.689275   -1.283937
 C    1.845078   -5.389950   -2.486927
 N    0.489638   -3.852612   -1.233023
 C   -0.082971   -3.182212   -0.178104
 C   -1.457335   -2.613153   -0.439838
 C   -1.601241   -1.364201   -1.061073
 C   -2.875069   -0.853811   -1.320417
 C   -4.037346   -1.567757   -0.969554
 C   -3.871777   -2.818186   -0.342134
 C   -2.602203   -3.338591   -0.080618
 C   -5.428845   -0.979114   -1.208294
 N   -5.995523   -0.043792   -0.220381
 C   -5.477541    1.341561   -0.163149
 C   -4.367125    1.573959    0.893767
 N   -4.729610    1.132995    2.260709
 C   -5.543933    2.057364    3.058893
 C   -5.191673   -0.274973    2.204423
 C   -6.290252   -0.543336    1.142573
 O    0.463609   -3.027957    0.900548
 C    5.093913   -7.332392   -1.720831
 H   -4.012651   -6.334749   -7.886023
 H   -1.747339   -7.314846   -8.075585
 H   -0.929275   -5.723120   -4.133446
 H   -4.621023   -5.069087   -5.809195
 H    0.302854   -8.247078   -8.049695
 H    2.655276   -8.995142   -7.730886
 H    4.025929   -7.427695   -4.023845
 H    4.344748   -5.830360    0.396717
 H    2.420338   -4.340151    0.703194
 H    1.146844   -5.269462   -3.301035
 H   -0.034530   -3.799805   -2.095892
 H   -0.709924   -0.804796   -1.333439
 H   -2.958933    0.122064   -1.798658
 H   -4.744767   -3.395995   -0.039091
 H   -2.482080   -4.303940    0.403787
 H   -5.422300   -0.463310   -2.179649
 H   -6.146032   -1.807610   -1.303236
 H   -5.196609    1.681220   -1.132362
 H   -6.681890    2.255055    0.295483
 H   -4.082663    3.004572    0.928399
 H   -3.352535    1.003730    0.580048
 H   -6.538494    2.188384    2.618001
 H   -5.053111    3.035087    3.122570
 H   -5.658789    1.673628    4.079177
 H   -5.504544   -0.600433    3.209055
 H   -3.979143   -1.115200    1.811625
 H   -7.560493    0.234846    1.651800
 H   -6.573452   -1.656935    1.108624
 H    5.795799   -6.983277   -2.491328
 H    4.806707   -8.362137   -1.976323
 H    5.661325   -7.391039   -0.781658

20 21 22 23 F
36 21 22 23 F
36 21 22 27 F
20 21 22 27 F
8 7 3 2 F
12 7 3 2 F
8 7 3 4 F
12 7 3 4 F
14 13 11 12 F
14 13 11 10 F
15 14 13 11 F
19 14 13 11 F
19 18 20 21 F
17 18 20 21 F
22 21 20 18 F
36 21 20 18 F
29 28 25 24 F
29 28 25 26 F
25 28 29 35 F
25 28 29 30 F

