%RWF=/scratch/bdw2292/Gau-MOLECULE0/,100GB
%Nosave
%Chk=MOLECULE0-opt-14-13-11-12-256.chk
%Mem=20GB
%Nproc=6
#P opt=(maxcycle=5,Loose) wB97XD/6-31G* MaxDisk=100GB

MOLECULE0 Rotatable Bond Optimization on node37.bme.utexas.edu

0 1
 C    5.779777    5.578740   -3.901885
 C    5.239163    5.093043   -2.704077
 C    5.500646    3.768796   -2.297702
 C    6.318827    3.004541   -3.166130
 N    6.842862    3.454065   -4.314234
 C    6.573421    4.718860   -4.668245
 C    4.955670    3.166141   -1.027653
 C    4.128728    3.832045   -0.105349
 C    3.725695    3.084858    1.007049
 N    4.067802    1.818257    1.221953
 C    4.865643    1.270054    0.285046
 N    5.312725    1.885278   -0.808707
 N    5.215122   -0.029907    0.521912
 C    4.471477   -1.244718    0.376458
 C    5.165352   -2.491233    0.344069
 C    4.387928   -3.650796    0.194723
 C    2.993595   -3.642925    0.078604
 C    2.328027   -2.412450    0.119758
 C    3.074707   -1.229410    0.262429
 N    0.912302   -2.231351    0.000543
 C   -0.087995   -3.120307   -0.319376
 C   -1.460855   -2.552990   -0.622099
 C   -1.654547   -1.327044   -1.279617
 C   -2.944290   -0.846566   -1.515026
 C   -4.081852   -1.567738   -1.106478
 C   -3.872919   -2.800216   -0.458096
 C   -2.586818   -3.297123   -0.234096
 C   -5.489405   -1.003756   -1.307360
 N   -6.023892   -0.053051   -0.315862
 C   -5.517185    1.337339   -0.311687
 C   -4.344261    1.587374    0.670752
 N   -4.626568    1.173106    2.064968
 C   -5.385574    2.117424    2.893447
 C   -5.099636   -0.233283    2.064607
 C   -6.254857   -0.522992    1.069764
 O    0.087609   -4.327866   -0.340349
 C    6.676072   -2.611697    0.447469
 H    5.591223    6.595289   -4.234598
 H    4.622917    5.764796   -2.111638
 H    6.556037    1.974820   -2.913899
 H    7.013816    5.053349   -5.606065
 H    3.802981    4.859271   -0.213949
 H    3.084175    3.530025    1.766767
 H    6.195113   -0.084381    0.757864
 H    4.881321   -4.621354    0.158432
 H    2.434881   -4.562711   -0.044526
 H    2.574311   -0.270482    0.302187
 H    0.608818   -1.273226    0.103256
 H   -0.791563   -0.755115   -1.611228
 H   -3.061270    0.113356   -2.018145
 H   -4.724908   -3.387396   -0.116362
 H   -2.433819   -4.251765    0.263013
 H   -5.529730   -0.509130   -2.288515
 H   -6.198678   -1.842658   -1.356365
 H   -5.303367    1.665307   -1.298810
 H   -6.695954    2.244843    0.210282
 H   -4.076138    3.066990    0.660802
 H   -3.406905    1.066944    0.336484
 H   -6.406062    2.242189    2.514177
 H   -4.889692    3.094672    2.904040
 H   -5.435566    1.756297    3.927085
 H   -5.379524   -0.539688    3.124774
 H   -3.937649   -1.075517    1.649649
 H   -7.492488    0.282532    1.627595
 H   -6.543304   -1.593218    1.073957
 H    7.039810   -2.264144    1.424714
 H    7.180716   -2.015010   -0.325496
 H    7.032999   -3.643886    0.327196

12 11 13 14 F
10 11 13 14 F
19 18 20 21 F
17 18 20 21 F
36 21 22 23 F
20 21 22 23 F
36 21 22 27 F
20 21 22 27 F
24 25 28 29 F
26 25 28 29 F
25 28 29 35 F
25 28 29 30 F

