%RWF=/scratch/bdw2292/Gau-MOLECULE0/,100GB
%Nosave
%Chk=MOLECULE0-opt-15-14-13-11-275.chk
%Mem=20GB
%Nproc=6
#P opt=(,maxcycle=400) wB97XD/6-31G* MaxDisk=100GB

MOLECULE0 Rotatable Bond Optimization on g2-node38.bme.utexas.edu

0 1
 C    5.689675   -0.593175    7.696320
 C    5.995987    0.186524    6.573139
 C    5.631258   -0.257093    5.285889
 C    4.959357   -1.503928    5.227030
 N    4.659915   -2.260299    6.291478
 C    5.021195   -1.806102    7.499881
 C    5.921656    0.518498    4.026009
 C    6.581838    1.757963    3.965014
 C    6.748695    2.299162    2.684956
 N    6.327569    1.721072    1.563535
 C    5.705335    0.535822    1.724692
 N    5.494359   -0.069508    2.892615
 N    5.267020   -0.074378    0.576287
 C    4.518218   -1.264736    0.395402
 C    5.195312   -2.516674    0.360292
 C    4.405587   -3.661223    0.175211
 C    3.013694   -3.626801    0.033390
 C    2.365505   -2.386443    0.086532
 C    3.127563   -1.216070    0.253902
 N    0.953035   -2.186577   -0.038787
 C   -0.052723   -3.062981   -0.376307
 C   -1.421993   -2.486012   -0.674996
 C   -1.615461   -1.249912   -1.312584
 C   -2.905371   -0.762259   -1.533368
 C   -4.042963   -1.494585   -1.144888
 C   -3.834047   -2.740114   -0.521889
 C   -2.547936   -3.236850   -0.299373
 C   -5.452843   -0.934525   -1.340327
 N   -6.003671   -0.006046   -0.337208
 C   -5.517099    1.390878   -0.302443
 C   -4.362603    1.641352    0.701425
 N   -4.653754    1.193799    2.083543
 C   -5.441142    2.106170    2.921596
 C   -5.101380   -0.220124    2.048931
 C   -6.241825   -0.506099    1.036603
 O    0.113518   -4.271486   -0.413027
 C    6.698594   -2.640258    0.536584
 H    5.961180   -0.271593    8.697480
 H    6.515318    1.128854    6.729691
 H    4.649022   -1.905936    4.266227
 H    4.763137   -2.444814    8.342977
 H    6.953830    2.289936    4.831882
 H    7.252134    3.256845    2.555303
 H    5.441613    0.481861   -0.248301
 H    4.884224   -4.639110    0.146942
 H    2.441784   -4.536555   -0.103949
 H    2.661814   -0.241063    0.296679
 H    0.657693   -1.227441    0.077556
 H   -0.751784   -0.672487   -1.632282
 H   -3.022687    0.207449   -2.017418
 H   -4.685754   -3.336135   -0.195082
 H   -2.395271   -4.199958    0.181358
 H   -5.491036   -0.424057   -2.313549
 H   -6.155791   -1.777027   -1.410403
 H   -5.298823    1.736538   -1.272035
 H   -6.722628    2.276184    0.224360
 H   -4.115392    3.122991    0.724958
 H   -3.393257    1.127961    0.359004
 H   -6.459131    2.219226    2.531991
 H   -4.964738    3.092462    2.958946
 H   -5.497476    1.722426    3.946871
 H   -5.383803   -0.552205    3.093343
 H   -3.917221   -1.036125    1.624935
 H   -7.495392    0.263770    1.594405
 H   -6.513604   -1.596110    1.016811
 H    7.002545   -2.348022    1.551763
 H    7.243967   -1.996129   -0.167057
 H    7.065057   -3.663820    0.377929

15 14 13 11 F
19 14 13 11 F
14 13 11 12 F
14 13 11 10 F
19 18 20 21 F
17 18 20 21 F
22 21 20 18 F
36 21 20 18 F
20 21 22 23 F
36 21 22 23 F
36 21 22 27 F
20 21 22 27 F
29 28 25 24 F
29 28 25 26 F
25 28 29 35 F
25 28 29 30 F

