%RWF=/scratch/bdw2292/Gau-MOLECULE0/,100GB
%Nosave
%Chk=MOLECULE0-opt-22-21-20-18-192.chk
%Mem=20GB
%Nproc=6
#P opt=(,maxcycle=400) wB97XD/6-31G* MaxDisk=100GB

MOLECULE0 Rotatable Bond Optimization on node37.bme.utexas.edu

0 1
 C   -0.168390    4.500384   -1.224850
 C    1.167035    4.392014   -0.812573
 C    1.748747    3.120898   -0.634997
 C    0.909569    2.016964   -0.927420
 N   -0.365245    2.097647   -1.329761
 C   -0.889607    3.325150   -1.464692
 C    3.172807    2.909804   -0.180310
 C    4.122036    3.920758    0.037848
 C    5.392763    3.484933    0.430486
 N    5.728612    2.211246    0.616888
 C    4.747573    1.308171    0.408226
 N    3.507421    1.620798    0.020933
 N    5.096031   -0.018128    0.625259
 C    4.390257   -1.265228    0.450992
 C    5.118679   -2.492596    0.415398
 C    4.378922   -3.672363    0.220762
 C    2.987882   -3.707416    0.062341
 C    2.287043   -2.499084    0.123585
 C    2.997768   -1.304435    0.316976
 N    0.874718   -2.331915   -0.024328
 C   -0.116796   -3.208517   -0.396220
 C   -1.472148   -2.605154   -0.713024
 C   -1.619048   -1.353399   -1.335013
 C   -2.887903   -0.818823   -1.560509
 C   -4.052248   -1.511926   -1.182343
 C   -3.892227   -2.780933   -0.592309
 C   -2.625943   -3.330285   -0.375077
 C   -5.432900   -0.876762   -1.350791
 N   -5.911578    0.049412   -0.307235
 C   -5.335911    1.411964   -0.237983
 C   -4.153040    1.569381    0.752128
 N   -4.446874    1.096903    2.125412
 C   -5.169320    2.028596    2.999617
 C   -4.974220   -0.287969    2.055600
 C   -6.146263   -0.478987    1.056657
 O    0.058197   -4.415077   -0.459102
 C    6.629620   -2.570759    0.550703
 H   -0.638883    5.470202   -1.357226
 H    1.721833    5.306753   -0.619803
 H    1.301722    1.008455   -0.855585
 H   -1.928592    3.365434   -1.788356
 H    3.928123    4.976765   -0.104068
 H    6.189857    4.207441    0.604284
 H    6.072081   -0.075929    0.874883
 H    4.903473   -4.626052    0.175186
 H    2.455885   -4.636979   -0.100227
 H    2.462416   -0.370621    0.365741
 H    0.560182   -1.379609    0.099578
 H   -0.738517   -0.782329   -1.619198
 H   -2.959310    0.169476   -2.014884
 H   -4.767337   -3.348408   -0.276433
 H   -2.509677   -4.304407    0.093382
 H   -5.455404   -0.328236   -2.303576
 H   -6.179708   -1.680141   -1.429882
 H   -5.112567    1.770164   -1.193499
 H   -6.477305    2.351593    0.331879
 H   -3.820539    3.014311    0.812593
 H   -3.193348    0.994737    0.366818
 H   -6.183818    2.211379    2.628149
 H   -4.635947    2.984098    3.057417
 H   -5.234291    1.619958    4.014521
 H   -5.254262   -0.636515    3.091397
 H   -3.844992   -1.154089    1.583460
 H   -7.350168    0.342232    1.667372
 H   -6.478117   -1.560393    1.009686
 H    6.963727   -2.207837    1.532813
 H    7.133735   -1.964139   -0.214946
 H    7.017029   -3.593482    0.444953

22 21 20 18 F
36 21 20 18 F
8 7 3 2 F
12 7 3 2 F
8 7 3 4 F
12 7 3 4 F
14 13 11 12 F
14 13 11 10 F
15 14 13 11 F
19 14 13 11 F
19 18 20 21 F
17 18 20 21 F
20 21 22 23 F
36 21 22 23 F
36 21 22 27 F
20 21 22 27 F
29 28 25 24 F
29 28 25 26 F
25 28 29 35 F
25 28 29 30 F

