%RWF=/scratch/bdw2292/Gau-MOLECULE0/,100GB
%Nosave
%Chk=MOLECULE0-opt-22-21-20-18-168.chk
%Mem=20GB
%Nproc=6
#P opt=(,maxcycle=400) wB97XD/6-31G* MaxDisk=100GB

MOLECULE0 Rotatable Bond Optimization on g2-node38.bme.utexas.edu

0 1
 C    1.383166    3.983896   -3.232629
 C    2.555423    3.862631   -2.473462
 C    2.835974    2.657704   -1.798526
 C    1.881790    1.623813   -1.968686
 N    0.756925    1.717904   -2.688875
 C    0.518305    2.885936   -3.304217
 C    4.063866    2.442667   -0.946823
 C    5.106951    3.364898   -0.765283
 C    6.153340    2.941687    0.062089
 N    6.200655    1.761056    0.672847
 C    5.147276    0.945186    0.457851
 N    4.105426    1.250422   -0.321043
 N    5.194982   -0.276813    1.113601
 C    4.341087   -1.439880    1.104219
 C    4.836399   -2.681155    1.606963
 C    3.966884   -3.784439    1.561522
 C    2.663551   -3.732273    1.053188
 C    2.185781   -2.504961    0.582159
 C    3.030796   -1.384266    0.614299
 N    0.888693   -2.265190    0.023232
 C   -0.118284   -3.132700   -0.327626
 C   -1.480779   -2.545610   -0.643164
 C   -1.666401   -1.309096   -1.285221
 C   -2.953041   -0.815030   -1.509893
 C   -4.095972   -1.537986   -1.120256
 C   -3.895883   -2.785213   -0.497780
 C   -2.613169   -3.290567   -0.274322
 C   -5.500080   -0.961429   -1.309509
 N   -6.029925   -0.028752   -0.297010
 C   -5.515050    1.359046   -0.258291
 C   -4.348185    1.589448    0.736556
 N   -4.633116    1.141025    2.119561
 C   -5.405691    2.058954    2.964611
 C   -5.099511   -0.265281    2.076047
 C   -6.256845   -0.531722    1.078249
 O    0.050720   -4.340876   -0.374601
 C    6.240595   -2.861181    2.157776
 H    1.143868    4.905569   -3.754755
 H    3.220426    4.720707   -2.414231
 H    2.049680    0.654485   -1.513591
 H   -0.402005    2.938705   -3.883705
 H    5.143294    4.341610   -1.231908
 H    7.006332    3.594644    0.245145
 H    6.061818   -0.352844    1.624499
 H    4.315634   -4.751028    1.923397
 H    2.035259   -4.613738    1.014128
 H    2.669685   -0.435204    0.253396
 H    0.719668   -1.299092   -0.216167
 H   -0.803264   -0.731596   -1.610577
 H   -3.060943    0.155629   -1.993904
 H   -4.751816   -3.374115   -0.168762
 H   -2.468361   -4.253883    0.208431
 H   -5.535920   -0.439148   -2.276614
 H   -6.213130   -1.796530   -1.371306
 H   -5.297640    1.704508   -1.224938
 H   -6.699258    2.262985    0.279373
 H   -4.077868    3.069109    0.762495
 H   -3.380118    1.057138    0.380210
 H   -6.423262    2.188531    2.579132
 H   -4.916001    3.038615    3.005262
 H   -5.463514    1.671116    3.988119
 H   -5.437700   -0.632777    3.246514
 H   -3.939172   -1.093788    1.654477
 H   -7.493358    0.267895    1.659222
 H   -6.543845   -1.570232    1.059873
 H    6.392493   -2.268474    3.070832
 H    7.002405   -2.548386    1.429740
 H    6.468060   -3.904266    2.417458

22 21 20 18 F
36 21 20 18 F
14 13 11 12 F
14 13 11 10 F
15 14 13 11 F
19 14 13 11 F
19 18 20 21 F
17 18 20 21 F
20 21 22 23 F
36 21 22 23 F
36 21 22 27 F
20 21 22 27 F
29 28 25 24 F
29 28 25 26 F
25 28 29 35 F
25 28 29 30 F

