%RWF=/scratch/bdw2292/Gau-MOLECULE0/,100GB
%Nosave
%Chk=MOLECULE0-opt-23-22-21-20-096.chk
%Mem=20GB
%Nproc=6
#P opt=(,maxcycle=400) wB97XD/6-31G* MaxDisk=100GB

MOLECULE0 Rotatable Bond Optimization on g2-node38.bme.utexas.edu

0 1
 C   -2.307807    1.862375    5.357664
 C   -1.115884    1.449649    5.967797
 C   -0.251207    0.565777    5.292620
 C   -0.663384    0.179615    3.993272
 N   -1.795019    0.562636    3.391989
 C   -2.605172    1.387120    4.075334
 C    1.035453    0.042526    5.881600
 C    1.572731    0.408422    7.126281
 C    2.782331   -0.205723    7.469775
 N    3.416990   -1.096344    6.712439
 C    2.818702   -1.402036    5.541868
 N    1.673244   -0.864750    5.116323
 N    3.474504   -2.342275    4.762244
 C    3.227351   -2.885546    3.448324
 C    4.281479   -3.566695    2.767048
 C    3.997931   -4.065665    1.484832
 C    2.757259   -3.931310    0.851416
 C    1.728417   -3.276611    1.537351
 C    1.979230   -2.769116    2.822320
 N    0.407306   -3.042011    1.031439
 C   -0.116096   -3.235363   -0.223512
 C   -1.478058   -2.630235   -0.474274
 C   -1.588065   -1.373094   -1.086717
 C   -2.847327   -0.835831   -1.365387
 C   -4.028845   -1.543712   -1.070631
 C   -3.898514   -2.776696   -0.401122
 C   -2.644145   -3.324134   -0.119904
 C   -5.403267   -0.966528   -1.414635
 N   -6.078589   -0.005047   -0.528140
 C   -5.597875    1.396131   -0.486452
 C   -4.698414    1.777184    0.717444
 N   -5.239279    1.391836    2.041423
 C   -6.275734    2.270028    2.602184
 C   -5.565415   -0.053514    1.996766
 C   -6.490004   -0.454969    0.820362
 O    0.452096   -3.869439   -1.095928
 C    5.671869   -3.755302    3.349656
 H   -2.997538    2.531487    5.863206
 H   -0.898312    1.812519    6.969389
 H   -0.032267   -0.466565    3.393836
 H   -3.524541    1.679583    3.574738
 H    1.115889    1.126158    7.796346
 H    3.269164    0.033508    8.415010
 H    4.337103   -2.609432    5.212420
 H    4.780975   -4.580676    0.929733
 H    2.587782   -4.319973   -0.145440
 H    1.192290   -2.263714    3.358298
 H   -0.225884   -2.598171    1.682792
 H   -0.681147   -0.839394   -1.358994
 H   -2.903112    0.132589   -1.862444
 H   -4.787539   -3.347170   -0.132640
 H   -2.553729   -4.297744    0.355162
 H   -5.321296   -0.480087   -2.398072
 H   -6.100495   -1.809749   -1.529541
 H   -5.114775    1.676364   -1.461668
 H   -6.883532    2.306742   -0.341003
 H   -4.453826    2.930002    0.714873
 H   -3.370832    1.019382    0.549111
 H   -7.180963    2.257429    1.985127
 H   -5.905159    3.299770    2.663219
 H   -6.535476    1.945537    3.616453
 H   -5.946557   -0.365774    2.937102
 H   -4.199598   -0.816486    1.761065
 H   -7.864760    0.180340    1.115042
 H   -6.654019   -1.841818    0.833932
 H    5.644075   -4.368529    4.261442
 H    6.131668   -2.792238    3.612788
 H    6.363920   -4.253645    2.656949

20 21 22 23 F
36 21 22 23 F
36 21 22 27 F
20 21 22 27 F
14 13 11 12 F
14 13 11 10 F
15 14 13 11 F
19 14 13 11 F
19 18 20 21 F
17 18 20 21 F
22 21 20 18 F
36 21 20 18 F
29 28 25 24 F
29 28 25 26 F
25 28 29 35 F
25 28 29 30 F

