%RWF=/scratch/bdw2292/Gau-MOLECULE0/,100GB
%Nosave
%Chk=MOLECULE0-opt-25-28-29-35-176.chk
%Mem=20GB
%Nproc=6
#P opt=(maxcycle=5,Loose) wB97XD/6-31G* MaxDisk=100GB

MOLECULE0 Rotatable Bond Optimization on node37.bme.utexas.edu

0 1
 C    0.054557    4.606102   -1.385699
 C    1.376672    4.470992   -0.939583
 C    1.922511    3.188253   -0.734569
 C    1.063927    2.101310   -1.034213
 N   -0.197955    2.207747   -1.468413
 C   -0.688867    3.445737   -1.631177
 C    3.331689    2.946018   -0.251592
 C    4.306204    3.932594   -0.033371
 C    5.560524    3.464851    0.375473
 N    5.858595    2.184192    0.578000
 C    4.852901    1.307846    0.373549
 N    3.626243    1.651083   -0.028265
 N    5.159075   -0.025145    0.606575
 C    4.414711   -1.251367    0.444725
 C    5.108750   -2.498698    0.413756
 C    4.335456   -3.658463    0.233586
 C    2.942537   -3.655411    0.092722
 C    2.274174   -2.428509    0.154227
 C    3.019643   -1.251348    0.324556
 N    0.861695   -2.232933    0.032369
 C   -0.149302   -3.097982   -0.314008
 C   -1.512142   -2.496207   -0.599179
 C   -1.684410   -1.243807   -1.213227
 C   -2.965124   -0.731231   -1.428709
 C   -4.116253   -1.456010   -1.067714
 C   -3.929932   -2.709068   -0.452282
 C   -2.652346   -3.231003   -0.234365
 C   -5.510761   -0.864801   -1.286437
 N   -6.045129    0.067418   -0.276942
 C   -5.918678   -0.268519    1.158995
 C   -7.128088   -1.078035    1.691295
 N   -8.454885   -0.468793    1.432837
 C   -8.896892    0.550861    2.391997
 C   -8.561196   -0.106735   -0.001999
 C   -7.353480    0.700010   -0.543619
 O    0.014193   -4.306971   -0.369031
 C    6.617708   -2.619884    0.538825
 H   -0.389672    5.585019   -1.540069
 H    1.949252    5.374249   -0.743837
 H    1.429445    1.084177   -0.943979
 H   -1.718043    3.506637   -1.981456
 H    4.144031    4.991847   -0.190897
 H    6.377263    4.165384    0.547687
 H    6.132688   -0.109673    0.857966
 H    4.831814   -4.627220    0.191277
 H    2.384119   -4.572456   -0.051363
 H    2.510935   -0.302336    0.373680
 H    0.564516   -1.275342    0.157721
 H   -0.814839   -0.660825   -1.508038
 H   -3.060974    0.254363   -1.883930
 H   -4.793058   -3.296770   -0.140281
 H   -2.517363   -4.203491    0.232538
 H   -5.521732   -0.340202   -2.252503
 H   -6.216968   -1.703837   -1.376657
 H   -5.037853   -0.703026    1.349232
 H   -5.922218    1.071518    1.953779
 H   -6.964021   -1.258234    3.116937
 H   -7.102918   -2.417737    1.025260
 H   -8.250324    1.434984    2.350944
 H   -8.879670    0.145870    3.410157
 H   -9.925846    0.856636    2.170784
 H   -9.480998    0.374107   -0.182123
 H   -8.568236   -1.444404   -0.799590
 H   -7.373323    2.045281    0.123963
 H   -7.524196    0.900759   -1.944813
 H    6.966984   -2.272041    1.521275
 H    7.134632   -2.023496   -0.226327
 H    6.975947   -3.652536    0.425571

25 28 29 35 F
25 28 29 30 F
12 11 13 14 F
10 11 13 14 F
19 18 20 21 F
17 18 20 21 F
36 21 22 23 F
20 21 22 23 F
36 21 22 27 F
20 21 22 27 F
24 25 28 29 F
26 25 28 29 F

