%RWF=/scratch/bdw2292/Gau-MOLECULE0/,100GB
%Nosave
%Chk=MOLECULE0-opt-15-14-13-11-247.chk
%Mem=20GB
%Nproc=6
#P opt=(,maxcycle=400) wB97XD/6-31G* MaxDisk=100GB

MOLECULE0 Rotatable Bond Optimization on g2-node38.bme.utexas.edu

0 1
 C    2.822846    1.279782    7.163736
 C    3.641335    1.728756    6.119026
 C    3.765830    0.963284    4.941952
 C    3.028247   -0.246828    4.908360
 N    2.242695   -0.689471    5.899231
 C    2.147015    0.065736    7.002791
 C    4.616981    1.377515    3.768173
 C    5.385705    2.551930    3.693320
 C    6.093033    2.744529    2.500918
 N    6.071092    1.904802    1.469788
 C    5.303838    0.808541    1.634451
 N    4.593831    0.524902    2.726091
 N    5.272873   -0.068955    0.578334
 C    4.521474   -1.258039    0.386505
 C    5.204004   -2.506710    0.341240
 C    4.417288   -3.652137    0.147362
 C    3.024444   -3.621620    0.011351
 C    2.371331   -2.384250    0.075427
 C    3.130533   -1.212869    0.244473
 N    0.957772   -2.187048   -0.041502
 C   -0.048458   -3.062665   -0.378737
 C   -1.419800   -2.486781   -0.670389
 C   -1.616221   -1.249702   -1.305163
 C   -2.907475   -0.764709   -1.523781
 C   -4.043389   -1.499249   -1.134105
 C   -3.831446   -2.743226   -0.509494
 C   -2.544031   -3.238382   -0.290848
 C   -5.454065   -0.941297   -1.329439
 N   -6.003744   -0.012042   -0.326599
 C   -5.514304    1.383995   -0.297463
 C   -4.359396    1.636573    0.705582
 N   -4.654350    1.199521    2.089993
 C   -5.443359    2.119082    2.918494
 C   -5.101802   -0.214727    2.063775
 C   -6.238666   -0.507576    1.049405
 O    0.120153   -4.270635   -0.422540
 C    6.709559   -2.626925    0.498848
 H    2.709163    1.854826    8.077893
 H    4.163474    2.673944    6.247194
 H    3.080327   -0.886800    4.031517
 H    1.500779   -0.321946    7.788498
 H    5.451255    3.285523    4.487326
 H    6.712827    3.630686    2.366818
 H    5.813151    0.257985   -0.209722
 H    4.900102   -4.627470    0.104525
 H    2.455334   -4.532391   -0.130755
 H    2.660162   -0.240480    0.298889
 H    0.661421   -1.228917    0.080551
 H   -0.754247   -0.671122   -1.627750
 H   -3.027317    0.204512   -2.008015
 H   -4.681780   -3.338798   -0.178155
 H   -2.389068   -4.200604    0.190699
 H   -5.493462   -0.430379   -2.302515
 H   -6.155973   -1.785442   -1.396312
 H   -5.289991    1.725577   -1.273849
 H   -6.711330    2.270458    0.216927
 H   -4.106742    3.117841    0.719361
 H   -3.388244    1.115046    0.366942
 H   -6.460052    2.230260    2.525103
 H   -4.965707    3.104925    2.949123
 H   -5.502574    1.743684    3.946523
 H   -5.376839   -0.536899    3.091928
 H   -3.908525   -1.037745    1.638972
 H   -7.501077    0.263843    1.606096
 H   -6.507343   -1.602419    1.033268
 H    7.077338   -2.048197    1.357635
 H    7.234988   -2.257662   -0.393136
 H    7.039174   -3.663043    0.657357

15 14 13 11 F
19 14 13 11 F
14 13 11 12 F
14 13 11 10 F
19 18 20 21 F
17 18 20 21 F
22 21 20 18 F
36 21 20 18 F
20 21 22 23 F
36 21 22 23 F
36 21 22 27 F
20 21 22 27 F
29 28 25 24 F
29 28 25 26 F
25 28 29 35 F
25 28 29 30 F

