%RWF=/scratch/bdw2292/Gau-MOLECULE0/,100GB
%Nosave
%Chk=MOLECULE0-opt-15-14-13-11-191.chk
%Mem=20GB
%Nproc=6
#P opt=(,maxcycle=400) wB97XD/6-31G* MaxDisk=100GB

MOLECULE0 Rotatable Bond Optimization on g2-node38.bme.utexas.edu

0 1
 C   -0.539104    3.933237    2.315016
 C    0.833390    3.975310    2.025476
 C    1.527055    2.783917    1.734564
 C    0.750523    1.599393    1.782170
 N   -0.556167    1.537797    2.057969
 C   -1.188718    2.692071    2.317907
 C    3.002796    2.719138    1.420677
 C    3.906271    3.792898    1.447026
 C    5.239824    3.468796    1.165284
 N    5.676930    2.245845    0.871883
 C    4.734920    1.280637    0.842304
 N    3.441563    1.488156    1.098473
 N    5.171105   -0.000737    0.528645
 C    4.473670   -1.251599    0.326477
 C    5.209693   -2.471946    0.246728
 C    4.469472   -3.658431    0.093944
 C    3.071415   -3.707007    0.011284
 C    2.367554   -2.500187    0.063808
 C    3.080561   -1.300202    0.203522
 N    0.950305   -2.333275   -0.039009
 C   -0.060918   -3.209977   -0.349130
 C   -1.425494   -2.606249   -0.626694
 C   -1.589094   -1.370778   -1.276921
 C   -2.865083   -0.858649   -1.519726
 C   -4.019322   -1.536596   -1.087247
 C   -3.839654   -2.760014   -0.411819
 C   -2.569905   -3.312208   -0.223955
 C   -5.412228   -0.937954   -1.289205
 N   -5.933909    0.054438   -0.333323
 C   -5.403494    1.436184   -0.376758
 C   -4.294452    1.761359    0.653599
 N   -4.623443    1.413142    2.052608
 C   -5.478353    2.352488    2.788871
 C   -5.054616   -0.008149    2.084512
 C   -6.175759   -0.356365    1.068062
 O    0.101789   -4.419101   -0.382608
 C    6.722978   -2.537549    0.357444
 H   -1.093970    4.839225    2.539753
 H    1.332515    4.941391    2.024701
 H    1.219137    0.634916    1.621476
 H   -2.250212    2.607184    2.546405
 H    3.630267    4.809729    1.698121
 H    6.007002    4.242527    1.184999
 H    6.160180    0.009047    0.328464
 H    4.998244   -4.609618    0.043511
 H    2.537892   -4.642096   -0.109262
 H    2.540525   -0.368445    0.228487
 H    0.645354   -1.376075    0.071961
 H   -0.713365   -0.826641   -1.622139
 H   -2.956369    0.097908   -2.034652
 H   -4.705630   -3.315728   -0.053331
 H   -2.441509   -4.268714    0.276434
 H   -5.444387   -0.463154   -2.280852
 H   -6.135957   -1.765717   -1.307092
 H   -5.122407    1.700901   -1.368091
 H   -6.615485    2.391665    0.014552
 H   -4.012782    3.164479    0.578324
 H   -3.130809    1.059929    0.313796
 H   -6.479820    2.404556    2.347268
 H   -5.035543    3.355077    2.777489
 H   -5.569924    2.038234    3.835045
 H   -5.307299   -0.284226    3.073424
 H   -3.813430   -0.854759    1.670044
 H   -7.443589    0.375789    1.550683
 H   -6.428431   -1.739492    1.128689
 H    7.078972   -2.074433    1.288663
 H    7.208190   -2.013877   -0.478385
 H    7.108640   -3.566420    0.351158

15 14 13 11 F
19 14 13 11 F
14 13 11 12 F
14 13 11 10 F
19 18 20 21 F
17 18 20 21 F
22 21 20 18 F
36 21 20 18 F
20 21 22 23 F
36 21 22 23 F
36 21 22 27 F
20 21 22 27 F
29 28 25 24 F
29 28 25 26 F
25 28 29 35 F
25 28 29 30 F

