%RWF=/scratch/bdw2292/Gau-MOLECULE0/,100GB
%Nosave
%Chk=MOLECULE0-opt-22-21-20-18-220.chk
%Mem=20GB
%Nproc=6
#P opt=(,maxcycle=400) wB97XD/6-31G* MaxDisk=100GB

MOLECULE0 Rotatable Bond Optimization on g2-node38.bme.utexas.edu

0 1
 C   -0.599648    4.251081    2.151208
 C    0.780149    4.273868    1.903079
 C    1.406633    3.159248    1.311069
 C    0.547146    2.089144    0.959961
 N   -0.771746    2.050356    1.180596
 C   -1.327550    3.113909    1.781262
 C    2.893886    3.061754    1.074777
 C    3.829505    4.083262    1.302899
 C    5.163599    3.753999    1.036616
 N    5.576750    2.560152    0.619529
 C    4.611725    1.632373    0.448397
 N    3.309801    1.853865    0.646937
 N    5.048513    0.378964    0.044392
 C    4.364105   -0.840717   -0.312538
 C    5.066079   -1.855802   -1.030825
 C    4.354938   -3.025575   -1.348830
 C    3.012204   -3.239693   -1.015704
 C    2.336891   -2.232533   -0.318744
 C    3.024136   -1.059771    0.030409
 N    0.960371   -2.265822    0.060453
 C   -0.033044   -3.151819   -0.269957
 C   -1.404926   -2.572789   -0.550265
 C   -1.588052   -1.329564   -1.178582
 C   -2.874353   -0.857347   -1.450774
 C   -4.017651   -1.593779   -1.088804
 C   -3.817366   -2.813345   -0.412360
 C   -2.535634   -3.313548   -0.172692
 C   -5.429506   -1.071328   -1.360146
 N   -6.064771   -0.120175   -0.432730
 C   -5.622544    1.292050   -0.431708
 C   -4.593992    1.670725    0.661950
 N   -4.967829    1.272044    2.036109
 C   -5.904599    2.151914    2.745351
 C   -5.314211   -0.171407    2.025080
 C   -6.360749   -0.563157    0.947948
 O    0.159374   -4.355309   -0.325823
 C    6.519398   -1.728796   -1.454157
 H   -1.098400    5.086053    2.634549
 H    1.345261    5.148058    2.216705
 H    0.948152    1.214820    0.459527
 H   -2.396985    3.047135    1.972340
 H    3.570980    5.076113    1.649958
 H    5.949919    4.495451    1.176276
 H    6.048211    0.397581   -0.091682
 H    4.859777   -3.822474   -1.893718
 H    2.497792   -4.153120   -1.291160
 H    2.511321   -0.286663    0.579025
 H    0.639614   -1.473361    0.600903
 H   -0.718310   -0.750920   -1.478926
 H   -2.983405    0.102689   -1.954800
 H   -4.673543   -3.410965   -0.100067
 H   -2.390489   -4.275514    0.312251
 H   -5.432093   -0.590138   -2.349235
 H   -6.102647   -1.939070   -1.422286
 H   -5.316281    1.590034   -1.393892
 H   -6.916189    2.161076   -0.082945
 H   -4.419427    3.123452    0.616996
 H   -3.350558    1.054583    0.366844
 H   -6.885779    2.159353    2.257009
 H   -5.515706    3.176298    2.771297
 H   -6.028563    1.813968    3.780632
 H   -5.600959   -0.478055    2.996133
 H   -4.014627   -0.932391    1.667540
 H   -7.684535    0.088217    1.368442
 H   -6.540412   -1.965519    0.978906
 H    7.186370   -1.673631   -0.582235
 H    6.686412   -0.824341   -2.056045
 H    6.864967   -2.576448   -2.062024

22 21 20 18 F
36 21 20 18 F
14 13 11 12 F
14 13 11 10 F
15 14 13 11 F
19 14 13 11 F
19 18 20 21 F
17 18 20 21 F
20 21 22 23 F
36 21 22 23 F
36 21 22 27 F
20 21 22 27 F
29 28 25 24 F
29 28 25 26 F
25 28 29 35 F
25 28 29 30 F

