%RWF=/scratch/bdw2292/Gau-MOLECULE0/,100GB
%Nosave
%Chk=MOLECULE0-opt-29-28-25-24-157.chk
%Mem=20GB
%Nproc=6
#P opt=(maxcycle=5,Loose) wB97XD/6-31G* MaxDisk=100GB

MOLECULE0 Rotatable Bond Optimization on node37.bme.utexas.edu

0 1
 C   -4.049574   -5.687830   -7.000904
 C   -2.824000   -6.227298   -7.415648
 C   -1.712006   -6.194350   -6.550878
 C   -1.942799   -5.619074   -5.276361
 N   -3.106002   -5.105068   -4.857614
 C   -4.135926   -5.137539   -5.716809
 C   -0.355669   -6.750311   -6.910256
 C   -0.038069   -7.442988   -8.089207
 C    1.278466   -7.909191   -8.181672
 N    2.211481   -7.723139   -7.251778
 C    1.825744   -7.022500   -6.164781
 N    0.593468   -6.542233   -5.977809
 N    2.804606   -6.815747   -5.203439
 C    2.791637   -6.197167   -3.899232
 C    3.855880   -6.459227   -2.984147
 C    3.777073   -5.853237   -1.718418
 C    2.731854   -5.012234   -1.318065
 C    1.715396   -4.736014   -2.238166
 C    1.760401   -5.334715   -3.507133
 N    0.578178   -3.897123   -2.008772
 C    0.105582   -3.301406   -0.863339
 C   -1.278376   -2.683286   -0.919455
 C   -2.334262   -3.216259   -1.676156
 C   -3.574897   -2.576252   -1.706617
 C   -3.832756   -1.407083   -0.959157
 C   -2.762696   -0.895003   -0.203711
 C   -1.513901   -1.520411   -0.169668
 C   -5.221897   -0.768457   -1.067018
 N   -5.890162    0.113925   -0.092390
 C   -5.498112    1.535529    0.062854
 C   -4.584683    1.886301    1.265933
 N   -5.075620    1.365370    2.563323
 C   -6.096989    2.155689    3.260661
 C   -5.337191   -0.088655    2.428787
 C   -6.250767   -0.446658    1.230509
 O    0.767083   -3.236928    0.161184
 C    5.026337   -7.373623   -3.302157
 H   -4.917190   -5.694782   -7.653988
 H   -2.759208   -6.650249   -8.415027
 H   -1.145529   -5.599155   -4.541233
 H   -5.070355   -4.711910   -5.354419
 H   -0.747353   -7.652056   -8.880574
 H    1.600052   -8.473310   -9.056663
 H    3.655228   -7.281935   -5.481429
 H    4.562458   -6.044144   -0.987985
 H    2.706501   -4.569586   -0.329757
 H    0.978989   -5.128120   -4.220513
 H   -0.017743   -3.777517   -2.815978
 H   -2.178732   -4.120750   -2.259951
 H   -4.357101   -3.014180   -2.327589
 H   -2.873588    0.019418    0.365152
 H   -0.699316   -1.109975    0.422517
 H   -5.207100   -0.186969   -2.002086
 H   -5.928484   -1.605755   -1.181915
 H   -5.151309    1.931869   -0.844702
 H   -6.884505    2.322870    0.397893
 H   -4.557469    3.420278    1.342386
 H   -3.720105    1.613323    1.160797
 H   -7.035258    2.173059    2.694950
 H   -5.748018    3.184966    3.400858
 H   -6.291311    1.729503    4.251699
 H   -5.703485   -0.473912    3.341123
 H   -4.033303   -0.739545    2.180167
 H   -7.662263    0.110784    1.590390
 H   -6.346155   -1.907136    1.150789
 H    5.631226   -6.976622   -4.129508
 H    4.685439   -8.377297   -3.593235
 H    5.708057   -7.509271   -2.451159

24 25 28 29 F
26 25 28 29 F
12 11 13 14 F
10 11 13 14 F
19 18 20 21 F
17 18 20 21 F
36 21 22 23 F
20 21 22 23 F
36 21 22 27 F
20 21 22 27 F
25 28 29 35 F
25 28 29 30 F

