%RWF=/scratch/bdw2292/Gau-MOLECULE0/,100GB
%Nosave
%Chk=MOLECULE0-opt-23-22-21-20-156.chk
%Mem=20GB
%Nproc=6
#P opt=(,maxcycle=400) wB97XD/6-31G* MaxDisk=100GB

MOLECULE0 Rotatable Bond Optimization on g2-node38.bme.utexas.edu

0 1
 C   -5.289617   -4.993530    5.638043
 C   -4.188542   -5.724681    6.104999
 C   -2.955475   -5.655005    5.425356
 C   -2.926567   -4.803452    4.293162
 N   -3.966438   -4.097272    3.832386
 C   -5.126094   -4.198670    4.498106
 C   -1.725903   -6.421635    5.848524
 C   -1.631942   -7.244544    6.982936
 C   -0.391460   -7.858287    7.186749
 N    0.658255   -7.717285    6.382972
 C    0.473782   -6.922258    5.307934
 N   -0.665093   -6.281699    5.028380
 N    1.575172   -6.791872    4.475853
 C    1.842561   -6.012098    3.293254
 C    3.195381   -5.809337    2.883317
 C    3.406755   -5.038939    1.727665
 C    2.377175   -4.466518    0.972092
 C    1.056441   -4.682606    1.379258
 C    0.811202   -5.453629    2.527871
 N   -0.114556   -4.162326    0.736916
 C   -0.259738   -3.242937   -0.276283
 C   -1.644067   -2.695398   -0.578232
 C   -1.719259   -1.441742   -1.210239
 C   -2.957656   -0.862432   -1.496476
 C   -4.164246   -1.517727   -1.187100
 C   -4.077016   -2.781208   -0.573874
 C   -2.842982   -3.367333   -0.284998
 C   -5.518697   -0.862085   -1.458662
 N   -6.077879    0.084724   -0.478771
 C   -5.505698    1.446337   -0.386561
 C   -4.448720    1.631538    0.732469
 N   -4.894824    1.193321    2.074729
 C   -5.725530    2.138466    2.831116
 C   -5.399271   -0.198355    1.981558
 C   -6.451723   -0.416566    0.863483
 O    0.691029   -2.867968   -0.945267
 C    4.392079   -6.367118    3.634879
 H   -6.249985   -5.037306    6.143332
 H   -4.322452   -6.346398    6.986862
 H   -2.004253   -4.669703    3.738897
 H   -5.954043   -3.613350    4.101298
 H   -2.440068   -7.407290    7.685727
 H   -0.233191   -8.503555    8.050500
 H    2.352994   -7.301895    4.867037
 H    4.425747   -4.856167    1.388524
 H    2.586204   -3.867358    0.094314
 H   -0.203000   -5.627409    2.851127
 H   -0.978558   -4.479939    1.150789
 H   -0.793846   -0.926771   -1.456263
 H   -2.976610    0.118800   -1.970471
 H   -4.985950   -3.320374   -0.307039
 H   -2.816545   -4.348133    0.181165
 H   -5.455242   -0.339909   -2.424496
 H   -6.270358   -1.654082   -1.590406
 H   -5.150951    1.773718   -1.338266
 H   -6.694130    2.410446    0.002252
 H   -4.099544    3.025322    0.792615
 H   -3.356235    0.946580    0.433070
 H   -6.690498    2.298650    2.336956
 H   -5.212080    3.102213    2.924615
 H   -5.906862    1.755811    3.842040
 H   -5.753396   -0.514893    2.935780
 H   -4.192509   -1.081251    1.630777
 H   -7.717962    0.391571    1.317823
 H   -6.773711   -1.569942    0.802900
 H    4.389802   -7.466267    3.633468
 H    4.397724   -6.037859    4.683491
 H    5.353169   -6.053935    3.204339

20 21 22 23 F
36 21 22 23 F
36 21 22 27 F
20 21 22 27 F
14 13 11 12 F
14 13 11 10 F
15 14 13 11 F
19 14 13 11 F
19 18 20 21 F
17 18 20 21 F
22 21 20 18 F
36 21 20 18 F
29 28 25 24 F
29 28 25 26 F
25 28 29 35 F
25 28 29 30 F

