%RWF=/scratch/bdw2292/Gau-MOLECULE0/,100GB
%Nosave
%Chk=MOLECULE0-opt-14-13-11-12-228.chk
%Mem=20GB
%Nproc=6
#P opt=(maxcycle=5,Loose) wB97XD/6-31G* MaxDisk=100GB

MOLECULE0 Rotatable Bond Optimization on node37.bme.utexas.edu

0 1
 C    7.385029    6.144062   -2.559404
 C    6.373053    5.522716   -1.815869
 C    6.478465    4.156740   -1.484201
 C    7.642387    3.495400   -1.948656
 N    8.617840    4.074253   -2.661415
 C    8.484100    5.375267   -2.956590
 C    5.437402    3.412292   -0.686764
 C    4.244942    3.968306   -0.192547
 C    3.416853    3.097352    0.523459
 N    3.690777    1.815915    0.750677
 C    4.860352    1.374592    0.243748
 N    5.722004    2.116039   -0.454095
 N    5.158383    0.054083    0.482763
 C    4.407984   -1.165230    0.343746
 C    5.112991   -2.407030    0.328049
 C    4.349371   -3.575909    0.182082
 C    2.956345   -3.584476    0.058853
 C    2.277847   -2.361261    0.091275
 C    3.011747   -1.168850    0.221245
 N    0.859643   -2.200139   -0.023630
 C   -0.128926   -3.106466   -0.331238
 C   -1.511945   -2.563484   -0.630907
 C   -1.729828   -1.345363   -1.294802
 C   -3.028819   -0.882928   -1.514411
 C   -4.151342   -1.621076   -1.094623
 C   -3.918447   -2.852323   -0.452492
 C   -2.622731   -3.325284   -0.232858
 C   -5.568454   -1.076135   -1.278256
 N   -6.103961   -0.136210   -0.277166
 C   -5.618049    1.261434   -0.271702
 C   -4.440601    1.523658    0.702461
 N   -4.702232    1.097137    2.097016
 C   -5.468767    2.023057    2.938956
 C   -5.153039   -0.316177    2.093182
 C   -6.313644   -0.616493    1.108275
 O    0.063051   -4.311765   -0.341950
 C    6.623860   -2.518271    0.442440
 H    7.325285    7.195552   -2.824883
 H    5.521647    6.124744   -1.508414
 H    7.784800    2.440590   -1.732468
 H    9.292961    5.815829   -3.537201
 H    3.949845    5.000110   -0.338273
 H    2.473081    3.452931    0.936209
 H    6.134819   -0.024418    0.726324
 H    4.852301   -4.541698    0.158893
 H    2.407449   -4.511497   -0.053022
 H    2.497462   -0.217829    0.251233
 H    0.544140   -1.245122    0.073004
 H   -0.878177   -0.761967   -1.635671
 H   -3.164795    0.074465   -2.017454
 H   -4.758446   -3.452011   -0.103094
 H   -2.450639   -4.274727    0.268006
 H   -5.626913   -0.580552   -2.258367
 H   -6.267685   -1.923852   -1.323643
 H   -5.418082    1.596424   -1.259035
 H   -6.805093    2.149650    0.265807
 H   -4.191614    3.013568    0.698590
 H   -3.485965    1.009168    0.350117
 H   -6.494957    2.132509    2.570833
 H   -4.989741    3.008563    2.951436
 H   -5.502385    1.654359    3.970582
 H   -5.420662   -0.632956    3.157292
 H   -3.986598   -1.136593    1.665952
 H   -7.559179    0.169550    1.682810
 H   -6.587541   -1.692988    1.110101
 H    6.976002   -2.181797    1.427806
 H    7.131169   -1.906853   -0.317362
 H    6.989369   -3.546089    0.310540

12 11 13 14 F
10 11 13 14 F
19 18 20 21 F
17 18 20 21 F
36 21 22 23 F
20 21 22 23 F
36 21 22 27 F
20 21 22 27 F
24 25 28 29 F
26 25 28 29 F
25 28 29 35 F
25 28 29 30 F

