molecule { 
0 1
N 2.298257799814 0.281520176280 0.376198253703
C 0.927514052508 0.117666313672 0.115125502370
C 0.391794580472 -1.158791493254 -0.098909958106
C 0.058377201436 1.215207105055 0.161476710100
C -0.977416942380 -1.326889478859 -0.288957153137
C -1.309941173436 1.040522987744 -0.028620044744
C -1.838759007819 -0.230706187612 -0.251174054646
H 1.055857616710 -2.021011299147 -0.124619199484
H 0.461586196368 2.210533732193 0.339562340970
H -1.372369969171 -2.325368193778 -0.460389360907
H -1.966711239250 1.906293609548 0.005156390365
H -2.906351878181 -0.364393238421 -0.399653344783
H 2.645596171363 1.200819366816 0.123250120489
H 2.874694734929 -0.434481774905 -0.054064757367
}
memory 700MB
set_num_threads(8)
psi4_io.set_default_path("/home/daniele/PSI4_sctatch/Psi4-aniline")
set freeze_core True
set PROPERTIES_ORIGIN ["COM"]
set cubeprop_tasks ['esp']
E, wfn = energy('mp2/6-311G**',properties=['dipole'],return_wfn=True)
cubeprop(wfn)
fchk(wfn, "aniline-dma.fchk")
clean()
