molecule { 
0 1
C            0.000006028363     0.667512769343     0.000000000000
C           -0.000006144756    -0.667512709957     0.000000000000
H           -0.922878823748     1.237507144535     0.000000000000
H            0.922902133697     1.237492284948     0.000000000000
H            0.922878351027    -1.237508377014     0.000000000000
H           -0.922900275105    -1.237491759570     0.000000000000
}
memory 700MB
set_num_threads(1)
psi4_io.set_default_path("/scratch/bdw2292")
set freeze_core True
set PROPERTIES_ORIGIN ["COM"]
E, wfn = energy('mp2/6-311G**',properties=['dipole'],return_wfn=True)
fchk(wfn, "ethene-dma.fchk")
clean()
