molecule { 
0 1
H -1.853399133481 -2.021944065594 0.010287561311
C -1.251879818347 -1.116576440305 0.009532189160
C -1.871112285134 0.134779811264 0.032915796238
H -2.954446267882 0.210285975325 0.051958156871
C -1.087166468108 1.286659578587 0.031637215830
H -1.555713897809 2.267349252083 0.049677841095
C 0.304348570917 1.194151531038 0.007231402073
H 0.913254282565 2.097195329370 0.006327260005
C 0.913777319763 -0.061512279412 -0.016025535292
C 0.135592299911 -1.220803009747 -0.014924483549
H 0.633760379768 -2.185585220695 -0.033301490654
O 2.276791516025 -0.226853169214 -0.040706059958
H 2.693357312673 0.652822999878 -0.038620909978
}
memory 700MB
set_num_threads(8)
psi4_io.set_default_path("/home/daniele/PSI4_sctatch/Psi4-phenol")
set maxiter 500
set freeze_core True
set PROPERTIES_ORIGIN ["COM"]
set cubeprop_tasks ['esp']
E, wfn = properties('mp2/aug-cc-pVTZ',properties=['dipole'],return_wfn=True)
cubeprop(wfn)
fchk(wfn, "phenol-esp.fchk")
oeprop(wfn,"GRID_ESP","WIBERG_LOWDIN_INDICES","MULLIKEN_CHARGES")
clean()
