molecule { 
0 1
 N    2.088108   -0.385073    0.975438
 C    0.828459   -0.156474    0.422904
 C    0.117617   -1.209174   -0.169354
 C    0.284110    1.132553    0.373123
 C   -1.113141   -0.976726   -0.769817
 C   -0.940657    1.357466   -0.246168
 C   -1.652631    0.306858   -0.816609
 H    0.540983   -2.210443   -0.158839
 H    0.825900    1.961685    0.822710
 H   -1.650251   -1.809002   -1.216284
 H   -1.342947    2.366370   -0.272999
 H   -2.611475    0.484817   -1.293276
 H    2.503734    0.401477    1.451801
 H    2.205342   -1.256253    1.472524
}
memory 700MB
set_num_threads(8)
psi4_io.set_default_path("/home/daniele/PSI4_sctatch/Psi4-aniline")
set freeze_core True
E, wfn = energy('wb97x-d/6-311+G*',return_wfn=True)
oeprop(wfn,"WIBERG_LOWDIN_INDICES")
clean()
