molecule { 
0 1
 N    2.316883    0.415730    0.247563
 C    0.920425    0.150840    0.070743
 C    0.426327   -1.124028   -0.228505
 C    0.014363    1.195285    0.264822
 C   -0.941919   -1.343969   -0.358402
 C   -1.356242    0.978946    0.138941
 C   -1.837437   -0.290546   -0.175127
 H    1.129908   -1.943105   -0.361450
 H    0.410814    2.175601    0.510570
 H   -1.310168   -2.338145   -0.596919
 H   -2.049459    1.802235    0.289256
 H   -2.906077   -0.460328   -0.273246
 H    2.853732    0.274244   -0.600050
 H    2.714938   -0.125525    1.015649
}
memory 700MB
set_num_threads(8)
psi4_io.set_default_path("/home/daniele/PSI4_sctatch/Psi4-aniline")
set freeze_core True
E, wfn = energy('wb97x-d/6-311+G*',return_wfn=True)
oeprop(wfn,"WIBERG_LOWDIN_INDICES")
clean()
