molecule { 
0 1
 N    2.319752    0.219206    0.381459
 C    0.921804    0.106026    0.126186
 C    0.365354   -1.168344   -0.014553
 C    0.075859    1.217824    0.081952
 C   -0.998334   -1.324128   -0.233730
 C   -1.293370    1.060286   -0.113107
 C   -1.835001   -0.210586   -0.279953
 H    1.023878   -2.028602    0.057602
 H    0.499194    2.213096    0.198490
 H   -1.414981   -2.320751   -0.348544
 H   -1.937201    1.934878   -0.140479
 H   -2.902016   -0.334394   -0.437481
 H    2.532135    0.998324    0.993308
 H    2.874307    0.289068   -0.464937
}
memory 700MB
set_num_threads(8)
psi4_io.set_default_path("/home/daniele/PSI4_sctatch/Psi4-aniline")
set freeze_core True
E, wfn = energy('wb97x-d/6-311+G*',return_wfn=True)
oeprop(wfn,"WIBERG_LOWDIN_INDICES")
clean()
