molecule { 
0 1
 N    2.291320    0.418283    0.158541
 C    0.927004    0.163732    0.059894
 C    0.446990   -1.098191   -0.314303
 C    0.001797    1.174904    0.351905
 C   -0.919772   -1.325822   -0.432162
 C   -1.362435    0.929236    0.255636
 C   -1.835806   -0.318338   -0.143800
 H    1.152241   -1.900211   -0.519247
 H    0.362581    2.158777    0.640301
 H   -1.270434   -2.308318   -0.735230
 H   -2.062791    1.727188    0.485592
 H   -2.902014   -0.502766   -0.226164
 H    2.920305   -0.315654   -0.124781
 H    2.614875    0.978740    0.929906
}
memory 700MB
set_num_threads(8)
psi4_io.set_default_path("/home/daniele/PSI4_sctatch/Psi4-aniline")
set freeze_core True
E, wfn = energy('wb97x-d/6-311+G*',return_wfn=True)
oeprop(wfn,"WIBERG_LOWDIN_INDICES")
clean()
