molecule { 
0 1
 N    1.829178   -0.364872    1.463107
 C    0.721149   -0.125087    0.582108
 C    0.175830   -1.208981   -0.107880
 C    0.175764    1.148673    0.383676
 C   -0.902795   -1.028008   -0.973442
 C   -0.898956    1.332833   -0.484680
 C   -1.441340    0.242903   -1.163684
 H    0.609879   -2.191440    0.048317
 H    0.598945    1.997987    0.914497
 H   -1.316643   -1.881354   -1.501978
 H   -1.310952    2.327471   -0.627339
 H   -2.280030    0.383975   -1.839582
 H    1.548592   -0.167549    2.418681
 H    2.576941    0.286339    1.260959
}
memory 700MB
set_num_threads(8)
psi4_io.set_default_path("/home/daniele/PSI4_sctatch/Psi4-aniline")
set freeze_core True
E, wfn = energy('wb97x-d/6-311+G*',return_wfn=True)
oeprop(wfn,"WIBERG_LOWDIN_INDICES")
clean()
