molecule { 
0 1
 N    2.281826    0.512452    0.334490
 C    0.906806    0.181458    0.141355
 C    0.480540   -1.114686   -0.159827
 C   -0.042757    1.201673    0.230602
 C   -0.872447   -1.390732   -0.335010
 C   -1.391289    0.928998    0.028802
 C   -1.813644   -0.369232   -0.248254
 H    1.214436   -1.912737   -0.249616
 H    0.293945    2.205093    0.473330
 H   -1.189072   -2.406155   -0.555783
 H   -2.118476    1.732607    0.102377
 H   -2.868163   -0.582967   -0.393516
 H    2.691158    0.861290   -0.527978
 H    2.810570   -0.319478    0.579742
}
memory 700MB
set_num_threads(8)
psi4_io.set_default_path("/home/daniele/PSI4_sctatch/Psi4-aniline")
set freeze_core True
E, wfn = energy('wb97x-d/6-311+G*',return_wfn=True)
oeprop(wfn,"WIBERG_LOWDIN_INDICES")
clean()
