molecule { 
0 1
 N    2.049383    0.601304    1.027776
 C    0.797313    0.253552    0.412613
 C    0.630768   -1.047586   -0.059876
 C   -0.247190    1.169601    0.256887
 C   -0.560886   -1.431613   -0.669644
 C   -1.436794    0.789475   -0.357272
 C   -1.597073   -0.514160   -0.820736
 H    1.452461   -1.746693    0.060299
 H   -0.121623    2.186607    0.622080
 H   -0.678450   -2.448959   -1.031834
 H   -2.239982    1.511848   -0.473044
 H   -2.525476   -0.812582   -1.299001
 H    2.461324    1.410294    0.572102
 H    1.918346    0.840791    2.010100
}
memory 700MB
set_num_threads(8)
psi4_io.set_default_path("/home/daniele/PSI4_sctatch/Psi4-aniline")
set freeze_core True
E, wfn = energy('wb97x-d/6-311+G*',return_wfn=True)
oeprop(wfn,"WIBERG_LOWDIN_INDICES")
clean()
