molecule { 
0 1
 N    2.317039    0.392175    0.191127
 C    0.921336    0.138272    0.091935
 C    0.400224   -1.156474   -0.014060
 C    0.041403    1.221037    0.054248
 C   -0.969430   -1.363547   -0.144381
 C   -1.330535    1.015520   -0.061224
 C   -1.839548   -0.276361   -0.162875
 H    1.084236   -2.001403    0.006857
 H    0.455651    2.222394    0.118197
 H   -1.359041   -2.374330   -0.226048
 H   -2.003507    1.867838   -0.084037
 H   -2.909468   -0.435580   -0.260391
 H    2.716928    0.343193    1.116451
 H    2.881350   -0.051777   -0.512370
}
memory 700MB
set_num_threads(8)
psi4_io.set_default_path("/home/daniele/PSI4_sctatch/Psi4-aniline")
set freeze_core True
E, wfn = energy('wb97x-d/6-311+G*',return_wfn=True)
oeprop(wfn,"WIBERG_LOWDIN_INDICES")
clean()
