molecule { 
0 1
 N    2.319219    0.440529    0.233168
 C    0.914572    0.152221    0.096660
 C    0.414488   -1.149966    0.011991
 C    0.025211    1.223529    0.035765
 C   -0.951565   -1.375784   -0.125394
 C   -1.342029    1.000095   -0.105283
 C   -1.833804   -0.299618   -0.184917
 H    1.104899   -1.989552    0.056025
 H    0.428451    2.228996    0.101859
 H   -1.327678   -2.392928   -0.188207
 H   -2.025109    1.843398   -0.151251
 H   -2.900099   -0.474509   -0.293762
 H    2.692180   -0.052290    1.041428
 H    2.822447    0.068418   -0.576921
}
memory 700MB
set_num_threads(8)
psi4_io.set_default_path("/home/daniele/PSI4_sctatch/Psi4-aniline")
set freeze_core True
E, wfn = energy('wb97x-d/6-311+G*',return_wfn=True)
oeprop(wfn,"WIBERG_LOWDIN_INDICES")
clean()
