molecule { 
0 1
 N    2.290795    0.442906    0.284248
 C    0.915264    0.161912    0.130737
 C    0.425518   -1.146834    0.065883
 C    0.016611    1.224345   -0.005160
 C   -0.937224   -1.385579   -0.083169
 C   -1.340094    0.981622   -0.188675
 C   -1.826316   -0.323349   -0.219351
 H    1.120039   -1.980274    0.141835
 H    0.396655    2.240302    0.049356
 H   -1.301838   -2.408477   -0.115129
 H   -2.024449    1.818951   -0.292360
 H   -2.887948   -0.510177   -0.348681
 H    2.816249   -0.296790    0.729071
 H    2.751200    0.791702   -0.544634
}
memory 700MB
set_num_threads(8)
psi4_io.set_default_path("/home/daniele/PSI4_sctatch/Psi4-aniline")
set freeze_core True
E, wfn = energy('wb97x-d/6-311+G*',return_wfn=True)
oeprop(wfn,"WIBERG_LOWDIN_INDICES")
clean()
