molecule { 
0 1
 N    2.335908    0.239211    0.108051
 C    0.929385    0.101999    0.082507
 C    0.371287   -1.153545   -0.180858
 C    0.077266    1.202988    0.211239
 C   -1.007519   -1.310443   -0.256979
 C   -1.301605    1.047854    0.101023
 C   -1.852144   -0.210487   -0.120977
 H    1.036085   -1.999153   -0.330843
 H    0.501688    2.186191    0.401327
 H   -1.424811   -2.294607   -0.450627
 H   -1.948031    1.915255    0.200820
 H   -2.928188   -0.332463   -0.197541
 H    2.656992    1.175586   -0.096223
 H    2.790994   -0.144863    0.925045
}
memory 700MB
set_num_threads(8)
psi4_io.set_default_path("/home/daniele/PSI4_sctatch/Psi4-aniline")
set freeze_core True
E, wfn = energy('wb97x-d/6-311+G*',return_wfn=True)
oeprop(wfn,"WIBERG_LOWDIN_INDICES")
clean()
