molecule { 
0 1
C 1.255271187045 -0.608726981943 0.010578445211
C 1.155255395307 0.782551554024 -0.023146116953
C 0.100657914034 -1.392194699739 0.033736405121
C -0.100452923735 1.392244056034 -0.033737214911
C -1.155284533429 -0.782374081176 0.023141552861
C -1.255471152216 0.608460605490 -0.010572127520
H 2.233618782946 -1.082240453874 0.018791809777
H 2.055151378534 1.392142530155 -0.041171262019
H 0.179144357963 -2.475780678271 0.060006553300
H -0.179677336676 2.475822955162 -0.059996368749
H -2.054738896579 -1.392501759363 0.041170588461
H -2.233211176897 1.083028289229 -0.018812558545
}
memory 700MB
set_num_threads(8)
psi4_io.set_default_path("/home/daniele/PSI4_sctatch/Psi4-benzene_3D")
set freeze_core True
set PROPERTIES_ORIGIN ["COM"]
set cubeprop_tasks ['esp']
E, wfn = energy('mp2/6-311G**',properties=['dipole'],return_wfn=True)
cubeprop(wfn)
fchk(wfn, "benzene_3D-dma.fchk")
clean()
